SystemName		Si bulk FCC with 2 atoms
SystemLabel		si2
NumberOfAtoms		2
NumberOfSpecies		1

%block ChemicalSpeciesLabel
	1	14	Si
%endblock ChemicalSpeciesLabel

LatticeConstant	  5.430 Ang

%block LatticeVectors
	0.000	0.500	0.500
	0.500	0.000	0.500
	0.500	0.500	0.000
%endblock LatticeVectors

AtomicCoordinatesFormat	ScaledCartesian

%block AtomicCoordinatesAndAtomicSpecies
   -0.125  -0.125  -0.125   1  Si
    0.125   0.125   0.125   1  Si
%endblock AtomicCoordinatesAndAtomicSpecies

PAO.BasisSize  DZP

%block kgrid.MonkhorstPack
  18   0   0   0.5
   0  18   0   0.5
   0   0  18   0.5
%endblock kgrid.MonkhorstPack

TimeReversalSymmetryForKpoints  false

%block BandLines
   1   1.0  1.0  1.0  L
  20   0.0  0.0  0.0  \Gamma
  25   2.0  0.0  0.0  X
  30   2.0  2.0  2.0  \Gamma
%endblock BandLines

BandLinesScale  pi/a

#%block UnfoldedBandLines
# 100  -20.0 30.0 eV
#   1   0.0  0.0  0.0
# 100  10.0  0.0  0.0
#   1   0.0  0.0  0.0
# 100   1.0  1.0  1.0
# 100  -20.0 30.0 eV
#%endblock UnfoldedBandLines

%block UnfoldedBandLines
 320  -20.0 60.0 eV
   1   3.0  3.0  3.0
  50   0.0  0.0  0.0
  75   6.0  0.0  0.0
%endblock UnfoldedBandLines

#%block UnfoldedBandLines
#  320  -20.0 60.0 eV
#   1   1.0  1.0  1.0  L
#  20   0.0  0.0  0.0  \Gamma
#  25   2.0  0.0  0.0  X
#  30   2.0  2.0  2.0  \Gamma
#%endblock UnfoldedBandLines

#%block RefoldingLatticeVectors
#  0.000  0.500  0.500
#  0.500  0.000  0.500
#  0.500  0.500  0.000
#%endblock RefoldingLatticeVectors

COOP.Write
WriteBands

