SystemName		Si bulk FCC with 2 atoms
SystemLabel		si2
NumberOfAtoms		2
NumberOfSpecies		1

%block ChemicalSpeciesLabel
	1	14	Si
%endblock ChemicalSpeciesLabel

LatticeConstant	  5.430 Ang

%block LatticeVectors
	0.000	0.500	0.500
	0.500	0.000	0.500
	0.500	0.500	0.000
%endblock LatticeVectors

AtomicCoordinatesFormat	ScaledCartesian

%block AtomicCoordinatesAndAtomicSpecies
   -0.125  -0.125  -0.125   1  Si
    0.125   0.125   0.125   1  Si
%endblock AtomicCoordinatesAndAtomicSpecies

XC.functional  GGA
XC.authors     PBE
PAO.BasisSize  DZP

%block kgrid.MonkhorstPack
   4   0   0   0.5
   0   4   0   0.5
   0   0   4   0.5
%endblock kgrid.MonkhorstPack

%block BandLines
   1   1.0  1.0  1.0  L
  20   0.0  0.0  0.0  \Gamma
  25   2.0  0.0  0.0  X
  30   2.0  2.0  2.0  \Gamma
%endblock BandLines

   ### Unfold options:

BandLinesScale  	pi/a
SaveHS			.true.
RefoldingGcutoff	15.0 Ry

%block UnfoldedBandLines
   300  -20.0  25.0  eV
   1  -2.0 -2.0 -2.0
 175   0.0  0.0  0.0   \Gamma
 100   2.0  0.0  0.0   
 140   2.0  2.0  2.0
%endblock UnfoldedBandLines

# %block UnfoldedBandLines
#    100  -20.0  30.0  eV
#    1   0.0  0.0  0.0
#  100  10.0  0.0  0.0
#    1   0.0  0.0  0.0
#  100   5.0  5.0  5.0
# %endblock UnfoldedBandLines

# %block UnfoldedBandLines
#     320  -20.0  60.0  eV
#    1   1.0  1.0  1.0  L
#   20   0.0  0.0  0.0  \Gamma
#   25   2.0  0.0  0.0  X
#   30   2.0  2.0  2.0  \Gamma
# %endblock UnfoldedBandLines

%block RefoldingLatticeVectors
  0.000  0.500  0.500
  0.500  0.000  0.500
  0.500  0.500  0.000
%endblock RefoldingLatticeVectors


