
# Sample FDF file for program SIESTA

# General System descriptors

SystemName Magnesium Oxide Crystal   # Descriptive name of the system
SystemLabel            MgO           # Short name for naming files

NumberOfAtoms           2            # Number of atoms
NumberOfSpecies         2            # Number of species

%block Chemical_Species_Label
  1   12   Mg
  2    8    O
%endblock Chemical_Species_Label

PAO.BasisSize      SZ

# Lattice, coordinates, k-sampling

AtomicCoordinatesFormat ScaledCartesian # Format for coordinates
AtomicCoorFormatOut     NotScaledCartesianAng

%block AtomicCoordinatesAndAtomicSpecies
   .000   .000   .000   1
   .500   .500   .500   2
%endblock AtomicCoordinatesAndAtomicSpecies

%block LatticeVectors
  0.000  0.500  0.500
  0.500  0.000  0.500
  0.500  0.500  0.000
%endblock LatticeVectors

%block kgrid_Monkhorst_Pack
    8  0  0  0.5
    0  8  0  0.5
    0  0  8  0.5
%endblock kgrid_Monkhorst_Pack
LatticeConstant     4.10 Ang

#BandLinesScale       pi/a
#%block BandLines
#1   1.5   1.5   0.0   K             # Begin at K
#38  0.0   0.0   0.0   \Gamma        # 38 points from K to Gamma
#36  0.0   2.0   0.0   X             # 36 points from Gamma to X
#18  1.0   2.0   0.0   W             # 18 points from X to W
#26  1.0   1.0   1.0   L             # 26 points from W to L
#31  0.0   0.0   0.0   \Gamma        # 31 points from L to Gamma
#%endblock BandLines


# DFT, Grid, SCF

XC.functional           LDA         # Exchange-correlation functional type
XC.authors              CA          # Particular parametrization of xc func
SpinPolarized           .false.     # Spin unpolarized calculation
MeshCutoff             200 Ry       # Equivalent planewave cutoff for the grid
MaxSCFIterations        100         # Maximum number of SCF iterations per step
DM.MixingWeight         0.200       # New DM amount for next SCF cycle
DM.Tolerance            1.d-4       # Tolerance in maximum difference
                                    # between input and output DM
DM.NumberPulay          3           # Number of SCF steps between pulay mixing

# Eigenvalue problem: order-N or diagonalization

SolutionMethod          diagon      # OrderN or Diagon
ElectronicTemperature   0 K        # Temp. for Fermi smearing

# Molecular dynamics and relaxations

MD.TypeOfRun            cg          # Type of dynamics:

# Output options

WriteCoorInitial        .true.
WriteCoorStep           .true.
WriteForces             .true.
WriteKpoints            .false.
WriteEigenvalues        .false.
WriteKbands             .false.
WriteBands              .false.
WriteMullikenPop        1            # Write Mulliken Population Analysis
WriteCoorXmol           .false.
WriteMDCoorXmol         .false.
WriteMDhistory          .false.
WriteCoorXmol           .false.

# Options for saving/reading information

DM.UseSaveDM            .true.        # Use DM Continuation files
MD.UseSaveXV            .false.      # Use stored positions and velocities
MD.UseSaveCG            .false.      # Use stored positions and velocities
SaveRho                 .true.      # Write valence pseudocharge at the mesh
SaveDeltaRho            .true.      # Write RHOscf-RHOatm at the mesh
SaveElectrostaticPotential .false.   # Write the total elect. pot. at the mesh
SaveTotalPotential      .false.      # Write the total pot. at the mesh
WriteSiestaDim          .false.      # Write minimum dim to siesta.h and stop
WriteDenchar            .true.       # Write information for DENCHAR

