#--------------------------------------- 
#Input Generated for Space Group Testing 
#--------------------------------------- 
SystemLabel  04-tetragonal-oP.25-spg99.inp 
NumberOfSpecies 1 
%block ChemicalSpeciesLabel 
 1  1  H 
%endblock ChemicalSpeciesLabel 
LatticeConstant  10.0 Ang   
%block LatticeVectors 
1.0000000000E+00  0.0000000000E+00  0.0000000000E+00
6.1232339957E-17  1.0000000000E+00  0.0000000000E+00
6.1232339957E-17  6.1232339957E-17  1.0000000000E+00
%endblock LatticeVectors 
AtomicCoordinatesFormat  Fractional 
%block AtomicCoordinatesAndAtomicSpecies 
1.7000000000E-01  1.5000000000E-01  1.1000000000E-01  1  1  H
7.3400000000E-01  4.6700000000E-01  6.6000000000E-01  1  2  H
4.4000000000E-01  8.2400000000E-01  3.1415000000E-01  1  3  H
8.5000000000E-01  1.7000000000E-01  1.1000000000E-01  1  4  H
5.3300000000E-01  7.3400000000E-01  6.6000000000E-01  1  5  H
1.7600000000E-01  4.4000000000E-01  3.1415000000E-01  1  6  H
1.7000000000E-01  8.5000000000E-01  1.1000000000E-01  1  7  H
7.3400000000E-01  5.3300000000E-01  6.6000000000E-01  1  8  H
4.4000000000E-01  1.7600000000E-01  3.1415000000E-01  1  9   H
8.3000000000E-01  8.5000000000E-01  1.1000000000E-01  1  10  H
2.6600000000E-01  5.3300000000E-01  6.6000000000E-01  1  11  H
5.6000000000E-01  1.7600000000E-01  3.1415000000E-01  1  12  H
1.5000000000E-01  1.7000000000E-01  1.1000000000E-01  1  13  H
4.6700000000E-01  7.3400000000E-01  6.6000000000E-01  1  14  H
8.2400000000E-01  4.4000000000E-01  3.1415000000E-01  1  15  H
8.5000000000E-01  8.3000000000E-01  1.1000000000E-01  1  16  H
5.3300000000E-01  2.6600000000E-01  6.6000000000E-01  1  17  H
1.7600000000E-01  5.6000000000E-01  3.1415000000E-01  1  18  H
1.5000000000E-01  8.3000000000E-01  1.1000000000E-01  1  19  H
4.6700000000E-01  2.6600000000E-01  6.6000000000E-01  1  20  H
8.2400000000E-01  5.6000000000E-01  3.1415000000E-01  1  21  H
8.3000000000E-01  1.5000000000E-01  1.1000000000E-01  1  22  H
2.6600000000E-01  4.6700000000E-01  6.6000000000E-01  1  23  H
5.6000000000E-01  8.2400000000E-01  3.1415000000E-01  1  24  H
%endblock AtomicCoordinatesAndAtomicSpecies 
MaxSCFIterations 	0  
MD.TypeOfRun    CG   
MD.NumCGsteps   0  
SCF.MustConverge  .False. 
