#--------------------------------------- 
#Input Generated for Space Group Testing 
#--------------------------------------- 
SystemLabel  03-orthorombic-oF.54-spg69.inp 
NumberOfSpecies 1 
%block ChemicalSpeciesLabel 
 1  1  H 
%endblock ChemicalSpeciesLabel 
LatticeConstant  1.0 Ang   
%block LatticeVectors 
  5.2047488964e-16   4.0   4.5  
  3.5   2.7554552981e-16   4.5  
  3.5   4.0   0.0  
%endblock LatticeVectors 
AtomicCoordinatesFormat  Fractional 
%block AtomicCoordinatesAndAtomicSpecies 
9.0000000000E-02   1.3000000000E-01   2.1000000000E-01  1  1   H 
1.3000000000E-01   9.0000000000E-02   5.7000000000E-01  1  2   H 
2.1000000000E-01   5.7000000000E-01   9.0000000000E-02  1  3   H 
5.7000000000E-01   2.1000000000E-01   1.3000000000E-01  1  4   H 
9.1000000000E-01   8.7000000000E-01   7.9000000000E-01  1  5   H 
8.7000000000E-01   9.1000000000E-01   4.3000000000E-01  1  6   H 
7.9000000000E-01   4.3000000000E-01   9.1000000000E-01  1  7   H 
4.3000000000E-01   7.9000000000E-01   8.7000000000E-01  1  8   H 
%endblock AtomicCoordinatesAndAtomicSpecies 
MaxSCFIterations 	0  
MD.TypeOfRun    CG   
MD.NumCGsteps   0  
SCF.MustConverge  .False. 
