SystemName		Si bulk 100 slab
SystemLabel		si100.2x4.bulk
NumberOfAtoms		32
NumberOfSpecies		1

%block ChemicalSpeciesLabel
	1	14	Si
%endblock ChemicalSpeciesLabel

LatticeConstant	  10.210 Bohr

%block LatticeVectors
	1.500	0.500	0.000
	0.500	1.500	0.000
	0.000	0.000	2.000
%endblock LatticeVectors

AtomicCoordinatesFormat	ScaledCartesian

%block AtomicCoordinatesAndAtomicSpecies 
 0.0000  0.5000 -0.0000  1   	Si
 0.5000  1.0000 -0.0000  1   	Si
 0.5000  0.0000 -0.0000  1   	Si
 1.0000  0.5000 -0.0000  1   	Si
 0.2500  0.2500 -0.2500  1   	Si
 0.7500  0.7500 -0.2500  1   	Si
 0.7500 -0.2500 -0.2500  1	Si   
 1.2500  0.2500 -0.2500  1	Si   
 0.0000  0.5000 -0.5000  1   	Si
 0.5000  1.0000 -0.5000  1   	Si
 0.5000  0.0000 -0.5000  1   	Si
 1.0000  0.5000 -0.5000  1   	Si
 0.2500  0.2500 -0.7500  1   	Si
 0.7500  0.7500 -0.7500  1   	Si
 0.7500 -0.2500 -0.7500  1	Si   
 1.2500  0.2500 -0.7500  1	Si   
 0.0000  0.5000 -1.0000  1   	Si
 0.5000  1.0000 -1.0000  1   	Si
 0.5000  0.0000 -1.0000  1   	Si
 1.0000  0.5000 -1.0000  1   	Si
 0.2500  0.2500 -1.2500  1   	Si
 0.7500  0.7500 -1.2500  1   	Si
 0.7500 -0.2500 -1.2500  1	Si   
 1.2500  0.2500 -1.2500  1	Si   
 0.0000  0.5000 -1.5000  1   	Si
 0.5000  1.0000 -1.5000  1   	Si
 0.5000  0.0000 -1.5000  1   	Si
 1.0000  0.5000 -1.5000  1   	Si
 0.2500  0.2500 -1.7500  1   	Si
 0.7500  0.7500 -1.7500  1   	Si
 0.7500 -0.2500 -1.7500  1	Si   
 1.2500  0.2500 -1.7500  1	Si   
%endblock AtomicCoordinatesAndAtomicSpecies 

%block UnfoldedBandLines
 400  -20.0  60.0  eV
   1   3.0   0.0   0.0
  60   0.0   0.0   0.0
  60   3.0   3.0   0.0
   1   0.0   0.0   0.0
 250   0.0   0.0   5.0
%endblock UnfoldedBandLines

#%block UnfoldedBandLines
#  320  -20.0 60.0 eV
#   1   1.0  1.0  1.0  L
#  20   0.0  0.0  0.0  \Gamma
#  25   2.0  0.0  0.0  X
#  30   2.0  2.0  2.0  \Gamma
#%endblock UnfoldedBandLines

#%block RefoldingLatticeVectors
#  0.000  0.500  0.500
#  0.500  0.000  0.500
#  0.500  0.500  0.000
#%endblock RefoldingLatticeVectors
