SystemName		Si 100 2x4 surface
SystemLabel		si100.2x4
NumberOfAtoms		40
NumberOfSpecies		2

%block ChemicalSpeciesLabel
	1	14	Si
        2       1       H
%endblock ChemicalSpeciesLabel

LatticeConstant	  10.210 Bohr

%block LatticeVectors
	1.500	0.500	0.000
	0.500	1.500	0.000
	0.000	0.000	3.000
%endblock LatticeVectors

AtomicCoordinatesFormat	ScaledCartesian

%block AtomicCoordinatesAndAtomicSpecies 
 0.0834  0.0834  0.0403  1	Si    
 0.3730  0.3730 -0.1032  1    	Si
 0.6270 -0.3730 -0.1032  1    	Si
 0.9166 -0.0834  0.0403  1    	Si
-0.2197  0.2465 -0.2349  1    	Si
 0.2197  0.7535 -0.2349  1  	Si
 0.2465 -0.2197 -0.2349  1    	Si
 0.7535  0.2197 -0.2349  1    	Si
 0.0000  0.5000 -0.5200  1    	Si
 0.4973  1.0027 -0.4666  1    	Si
 0.5000  0.0000 -0.5200  1    	Si
 1.0027  0.4973 -0.4666  1    	Si
 0.2473  0.2473 -0.7669  1   	Si
 0.7500  0.7500 -0.7216  1   	Si
 0.7527 -0.2473 -0.7669  1   	Si
 1.2500  0.2500 -0.7305  1   	Si
-0.0074 -0.0074 -1.0004  1   	Si
 0.5063  0.5063 -0.9943  1  	Si
 0.4937 -0.5063 -0.9943  1   	Si
 1.0074  0.0074 -1.0004  1    	Si
-0.2533  0.2482 -1.2486  1    	Si
 0.2533  0.7518 -1.2486  1    	Si
 0.2482 -0.2533 -1.2486  1    	Si
 0.7518  0.2533 -1.2486  1   	Si
 0.0000  0.5000 -1.5000  1   	Si
 0.5000  1.0000 -1.5000  1   	Si
 0.5000  0.0000 -1.5000  1   	Si
 1.0000  0.5000 -1.5000  1   	Si
 0.2500  0.2500 -1.7500  1   	Si
 0.7500  0.7500 -1.7500  1   	Si
 0.7500 -0.2500 -1.7500  1	Si   
 1.2500  0.2500 -1.7500  1	Si   
 0.0950  0.0950 -1.9235  2	H   
 0.4050  0.4050 -1.9235  2	H   
 0.5950  0.5950 -1.9235  2	H   
 0.9050  0.9050 -1.9235  2	H   
 0.5950 -0.4050 -1.9235  2	H   
 0.9050 -0.0950 -1.9235  2	H   
 1.0950  0.0950 -1.9235  2	H   
 1.4050  0.4050 -1.9235  2	H
%endblock AtomicCoordinatesAndAtomicSpecies 

PAO.BasisSize  DZP

%block kgrid.MonkhorstPack
  12   0   0   0.0
   0  12   0   0.0
   0   0   1   0.0
%endblock kgrid.MonkhorstPack

COOP.Write			.true.
WriteBands			.true.
TimeReversalSymmetryForKpoints	.false.

%block BandLines
   1   1.0  0.0  0.0  
  30   0.0  0.0  0.0
  30   1.0  1.0  0.0  
%endblock BandLines

BandLinesScale  pi/a

%block UnfoldedBandLines
 400  -20.0  60.0  eV
   1   3.0   0.0   0.0
  60   0.0   0.0   0.0
  60   3.0   3.0   0.0
   1   0.0   0.0   0.0
 250   0.0   0.0   5.0
%endblock UnfoldedBandLines

#%block UnfoldedBandLines
#  320  -20.0 60.0 eV
#   1   1.0  1.0  1.0  L
#  20   0.0  0.0  0.0  \Gamma
#  25   2.0  0.0  0.0  X
#  30   2.0  2.0  2.0  \Gamma
#%endblock UnfoldedBandLines

#%block RefoldingLatticeVectors
#  0.000  0.500  0.500
#  0.500  0.000  0.500
#  0.500  0.500  0.000
#%endblock RefoldingLatticeVectors

