%block AtomicCoordinatesAndAtomicSpecies 
 0.0834  0.0834  0.0403  1	Si    
 0.3730  0.3730 -0.1032  1    	Si
 0.6270 -0.3730 -0.1032  1    	Si
 0.9166 -0.0834  0.0403  1    	Si
-0.2197  0.2465 -0.2349  1    	Si
 0.2197  0.7535 -0.2349  1  	Si
 0.2465 -0.2197 -0.2349  1    	Si
 0.7535  0.2197 -0.2349  1    	Si
 0.0000  0.5000 -0.5200  1    	Si
 0.4973  1.0027 -0.4666  1    	Si
 0.5000  0.0000 -0.5200  1    	Si
 1.0027  0.4973 -0.4666  1    	Si
 0.2473  0.2473 -0.7669  1   	Si
 0.7500  0.7500 -0.7216  1   	Si
 0.7527 -0.2473 -0.7669  1   	Si
 1.2500  0.2500 -0.7305  1   	Si
-0.0074 -0.0074 -1.0004  1   	Si
 0.5063  0.5063 -0.9943  1  	Si
 0.4937 -0.5063 -0.9943  1   	Si
 1.0074  0.0074 -1.0004  1    	Si
-0.2533  0.2482 -1.2486  1    	Si
 0.2533  0.7518 -1.2486  1    	Si
 0.2482 -0.2533 -1.2486  1    	Si
 0.7518  0.2533 -1.2486  1   	Si
 0.0000  0.5000 -1.5000  1   	Si
 0.5000  1.0000 -1.5000  1   	Si
 0.5000  0.0000 -1.5000  1   	Si
 1.0000  0.5000 -1.5000  1   	Si
 0.2500  0.2500 -1.7500  1   	Si
 0.7500  0.7500 -1.7500  1   	Si
 0.7500 -0.2500 -1.7500  1	Si   
 1.2500  0.2500 -1.7500  1	Si   
 0.0950  0.0950 -1.9235  2	H   
 0.4050  0.4050 -1.9235  2	H   
 0.5950  0.5950 -1.9235  2	H   
 0.9050  0.9050 -1.9235  2	H   
 0.5950 -0.4050 -1.9235  2	H   
 0.9050 -0.0950 -1.9235  2	H   
 1.0950  0.0950 -1.9235  2	H   
 1.4050  0.4050 -1.9235  2	H
%endblock AtomicCoordinatesAndAtomicSpecies 
