#--------------------------------------- 
#Input Generated for Space Group Testing 
#--------------------------------------- 
SystemLabel  03-orthorhombic-oS.21-spg36.inp 
NumberOfSpecies 1 
%block ChemicalSpeciesLabel 
 1  1  H 
%endblock ChemicalSpeciesLabel 
LatticeConstant  5.0 Ang   
%block LatticeVectors 
3.5000000000E+00  4.0000000000E+00  0.0000000000E+00
-3.5000000000E+00  4.0000000000E+00  0.0000000000E+00
5.5109105962E-16  5.5109105962E-16  9.0000000000E+00
%endblock LatticeVectors 
AtomicCoordinatesFormat  Fractional 
%block AtomicCoordinatesAndAtomicSpecies 
3.2000000000E-01  9.8000000000E-01  1.1000000000E-01  1  1  H
2.0100000000E-01  7.3300000000E-01  6.6000000000E-01  1  2  H
2.6400000000E-01  3.8400000000E-01  3.1415000000E-01  1  3  H
6.8000000000E-01  2.0000000000E-02  6.1000000000E-01  1  4  H
7.9900000000E-01  2.6700000000E-01  1.6000000000E-01  1  5  H
7.3600000000E-01  6.1600000000E-01  8.1415000000E-01  1  6  H
2.0000000000E-02  6.8000000000E-01  6.1000000000E-01  1  7  H
2.6700000000E-01  7.9900000000E-01  1.6000000000E-01  1  8  H
6.1600000000E-01  7.3600000000E-01  8.1415000000E-01  1  9  H
9.8000000000E-01  3.2000000000E-01  1.1000000000E-01  1  10  H
7.3300000000E-01  2.0100000000E-01  6.6000000000E-01  1  11  H
3.8400000000E-01  2.6400000000E-01  3.1415000000E-01  1  12  H
%endblock AtomicCoordinatesAndAtomicSpecies 
MaxSCFIterations 	0  
MD.TypeOfRun    CG   
MD.NumCGsteps   0  
SCF.MustConverge  .False. 
