
# Sample FDF file for program SIESTA
# P.Ordejon, December'96, J.M.Soler, March'97, P.Ordejon, July'03

SystemName        Si tetrahedral     # Descriptive name of the system
SystemLabel            SiH3          # Short name for naming files
NumberOfAtoms           4            # Number of atoms
NumberOfSpecies         2            # Number of species

PAO.EnergyShift 0.25 eV
PAO.SplitNorm   0.15
PAO.BasisType   split
PAO.BasisSize   DZP

LatticeConstant 8.0 Ang

%block ChemicalSpeciesLabel
 1  14  Si     # Species index, atomic number, species label
 2  1   H
%endblock ChemicalSpeciesLabel

WriteWaveFunctions T

%block WaveFuncKPoints
0.0 0.0 0.0 5
%endblock WaveFuncKPoints


%block AtomicCoordinatesAndAtomicSpecies
   0.00000    .00000    .00000    1
  -0.85447  -0.85447   0.85447    2
  -0.85447   0.85447  -0.85447    2
   0.85447  -0.85447  -0.85447    2
%endblock AtomicCoordinatesAndAtomicSpecies

%block kgrid_Monkhorst_Pack
 1  0  0  0.0
 0  1  0  0.0
 0  0  1  0.0
%endblock kgrid_Monkhorst_Pack

# Atomic coordinates
AtomicCoordinatesFormat   NotScaledCartesianAng  # Format for coordinates
                                                 #   - NotScaledCartesianBohr
                                                 #   - NotScaledCartesianAng
                                                 #   - ScaledCartesian

SpinPolarized         true          # Logical parameters are: yes or no

MeshCutoff          150. Ry          # Mesh cutoff. real space mesh

# SCF options
MaxSCFIterations      100           # Maximum number of SCF iter
DM.MixingWeight       0.10          # New DM amount for next SCF cycle
DM.Tolerance          1.d-4         # Tolerance in maximum difference
                                    # between input and output DM
DM.UseSaveDM           yes          # to use continuation files
DM.NumberPulay         3

NeglNonOverlapInt     false        # Neglect non-overlap interactions
  
WriteMullikenPop       1


ElectronicTemperature 25 meV       # Temp. for Fermi smearing

# MD options

MD.TypeOfRun            Verlet      # Type of dynamics:
MD.InitialTimeStep      1
MD.FinalTimeStep        1  
MD.LenghtTimeStep       2.0 fs
MD.InitialTemperature   0.0 K

WriteDenchar           .true.
SaveRho                .true.
SaveDeltaRho                .true.


#  *************************************************************************
#                     Input variables for Denchar
#  (besides SystemLabel, NumberOfSpecies and ChemicalSpecies, defined above)
#  *************************************************************************


Denchar.TypeOfRun          3D

Denchar.PlotWaveFunctions   T
Denchar.PlotCharge          T

Denchar.CoorUnits       bohr           # Format for coordinate of the points
                                       # Bohr
                                       # Ang

Denchar.DensityUnits   Ele/bohr**3     # Units of Charge Density
                                       # Ele/bohr**3
                                       # Ele/Ang**3
                                       # Ele/UnitCell

Denchar.MinX           -3.0  Bohr      # Minimum coord of the window in X-dir
Denchar.MaxX            3.0  Bohr      # Maximum coord of the window in X-dir

Denchar.MinY           -3.0  Bohr      # Minimum coord of the window in Y-dir
Denchar.MaxY            3.0  Bohr      # Maximum coord of the window in X-dir

Denchar.MinZ           -3.0  Bohr      # Minimum coord of the window in Y-dir
Denchar.MaxZ            3.0  Bohr      # Maximum coord of the window in X-dir

Denchar.NumberPointsX         15       # Number of points in X-axis
Denchar.NumberPointsY         15       # Number of points in Y-axis
Denchar.NumberPointsY         15       # Number of points in Y-axis

Denchar.PlaneGeneration  NormalVector  # Option to generate the plane
                                       # NormalVector
                                       # TwoLines
                                       # ThreePoints
                                       # ThreeAtomicIndices


%block Denchar.CompNormalVector        # Components of the Normal Vector
0.000   0.000   1.000
%endblock Denchar.CompNormalVector

%block Denchar.PlaneOrigin             # Coordinates of the origin of the plane
0.000   0.000   0.000
%endblock Denchar.PlaneOrigin

%block Denchar.X_Axis                  # Coordinates one point to define x-axis
1.00000 0.00000 0.00000
%endblock Denchar.X_Axis


