#--------------------------------------- 
#Input Generated for Space Group Testing 
#--------------------------------------- 
SystemLabel  06-cubic-cF.09-spg203.inp 
NumberOfSpecies 1 
%block ChemicalSpeciesLabel 
 1  1  H 
%endblock ChemicalSpeciesLabel 
LatticeConstant  1.0 Ang   
%block LatticeVectors 
  0.0   4.0   4.0  
  4.0   0.0   4.0  
  4.0   4.0   0.0  
%endblock LatticeVectors 
AtomicCoordinatesFormat  Fractional 
%block AtomicCoordinatesAndAtomicSpecies 
9.0000000000E-02   1.3000000000E-01   2.1000000000E-01  1  1   H 
2.1000000000E-01   9.0000000000E-02   1.3000000000E-01  1  2   H 
1.3000000000E-01   9.0000000000E-02   5.7000000000E-01  1  3   H 
2.1000000000E-01   5.7000000000E-01   9.0000000000E-02  1  4   H 
1.3000000000E-01   2.1000000000E-01   9.0000000000E-02  1  5   H 
5.7000000000E-01   1.3000000000E-01   9.0000000000E-02  1  6   H 
9.0000000000E-02   2.1000000000E-01   5.7000000000E-01  1  7   H 
5.7000000000E-01   2.1000000000E-01   1.3000000000E-01  1  8   H 
1.3000000000E-01   5.7000000000E-01   2.1000000000E-01  1  9   H 
9.0000000000E-02   5.7000000000E-01   1.3000000000E-01  1  10   H 
5.7000000000E-01   9.0000000000E-02   2.1000000000E-01  1  11   H 
2.1000000000E-01   1.3000000000E-01   5.7000000000E-01  1  12   H 
1.6000000000E-01   1.2000000000E-01   4.0000000000E-02  1  13   H 
4.0000000000E-02   1.6000000000E-01   1.2000000000E-01  1  14   H 
1.2000000000E-01   1.6000000000E-01   6.8000000000E-01  1  15   H 
4.0000000000E-02   6.8000000000E-01   1.6000000000E-01  1  16   H 
1.2000000000E-01   4.0000000000E-02   1.6000000000E-01  1  17   H 
6.8000000000E-01   1.2000000000E-01   1.6000000000E-01  1  18   H 
1.6000000000E-01   4.0000000000E-02   6.8000000000E-01  1  19   H 
6.8000000000E-01   4.0000000000E-02   1.2000000000E-01  1  20   H 
1.2000000000E-01   6.8000000000E-01   4.0000000000E-02  1  21   H 
1.6000000000E-01   6.8000000000E-01   1.2000000000E-01  1  22   H 
6.8000000000E-01   1.6000000000E-01   4.0000000000E-02  1  23   H 
4.0000000000E-02   1.2000000000E-01   6.8000000000E-01  1  24   H 
%endblock AtomicCoordinatesAndAtomicSpecies 
MaxSCFIterations 	0  
MD.TypeOfRun    CG   
MD.NumCGsteps   0  
SCF.MustConverge  .False. 
