#--------------------------------------- 
#Input Generated for Space Group Testing 
#--------------------------------------- 
SystemLabel  06-cubic-cI.05-spg199.inp 
NumberOfSpecies 1 
%block ChemicalSpeciesLabel 
 1  1  H 
%endblock ChemicalSpeciesLabel 
LatticeConstant  1.0 Ang   
%block LatticeVectors 
  -4.0   4.0   4.0  
  4.0   -4.0   4.0  
  4.0   4.0   -4.0  
%endblock LatticeVectors 
AtomicCoordinatesFormat  Fractional 
%block AtomicCoordinatesAndAtomicSpecies 
2.6000000000E-01   2.8000000000E-01   3.2000000000E-01  1  1   H 
3.2000000000E-01   2.6000000000E-01   2.8000000000E-01  1  2   H 
4.6000000000E-01   9.4000000000E-01   1.8000000000E-01  1  3   H 
4.0000000000E-02   2.2000000000E-01   4.8000000000E-01  1  4   H 
2.4000000000E-01   5.6000000000E-01   2.0000000000E-02  1  5   H 
1.8000000000E-01   4.6000000000E-01   9.4000000000E-01  1  6   H 
4.8000000000E-01   4.0000000000E-02   2.2000000000E-01  1  7   H 
2.0000000000E-02   2.4000000000E-01   5.6000000000E-01  1  8   H 
2.8000000000E-01   3.2000000000E-01   2.6000000000E-01  1  9   H 
9.4000000000E-01   1.8000000000E-01   4.6000000000E-01  1  10   H 
2.2000000000E-01   4.8000000000E-01   4.0000000000E-02  1  11   H 
5.6000000000E-01   2.0000000000E-02   2.4000000000E-01  1  12   H 
%endblock AtomicCoordinatesAndAtomicSpecies 
MaxSCFIterations 	0  
MD.TypeOfRun    CG   
MD.NumCGsteps   0  
SCF.MustConverge  .False. 
