#--------------------------------------- 
#Input Generated for Space Group Testing 
#--------------------------------------- 
SystemLabel  06-cubic-cF.32-spg226.inp 
NumberOfSpecies 1 
%block ChemicalSpeciesLabel 
 1  1  H 
%endblock ChemicalSpeciesLabel 
LatticeConstant  1.0 Ang   
%block LatticeVectors 
  0.0   4.0   4.0  
  4.0   0.0   4.0  
  4.0   4.0   0.0  
%endblock LatticeVectors 
AtomicCoordinatesFormat  Fractional 
%block AtomicCoordinatesAndAtomicSpecies 
9.0000000000E-02   1.3000000000E-01   2.1000000000E-01  1  1   H 
2.1000000000E-01   9.0000000000E-02   1.3000000000E-01  1  2   H 
1.3000000000E-01   9.0000000000E-02   5.7000000000E-01  1  3   H 
2.1000000000E-01   5.7000000000E-01   9.0000000000E-02  1  4   H 
4.1000000000E-01   3.7000000000E-01   9.3000000000E-01  1  5   H 
1.3000000000E-01   2.1000000000E-01   9.0000000000E-02  1  6   H 
5.7000000000E-01   1.3000000000E-01   9.0000000000E-02  1  7   H 
9.0000000000E-02   2.1000000000E-01   5.7000000000E-01  1  8   H 
9.3000000000E-01   4.1000000000E-01   3.7000000000E-01  1  9   H 
5.7000000000E-01   2.1000000000E-01   1.3000000000E-01  1  10   H 
3.7000000000E-01   4.1000000000E-01   2.9000000000E-01  1  11   H 
1.3000000000E-01   5.7000000000E-01   2.1000000000E-01  1  12   H 
9.3000000000E-01   2.9000000000E-01   4.1000000000E-01  1  13   H 
2.9000000000E-01   4.1000000000E-01   9.3000000000E-01  1  14   H 
2.9000000000E-01   9.3000000000E-01   3.7000000000E-01  1  15   H 
9.0000000000E-02   5.7000000000E-01   1.3000000000E-01  1  16   H 
5.7000000000E-01   9.0000000000E-02   2.1000000000E-01  1  17   H 
3.7000000000E-01   9.3000000000E-01   4.1000000000E-01  1  18   H 
2.9000000000E-01   3.7000000000E-01   4.1000000000E-01  1  19   H 
2.1000000000E-01   1.3000000000E-01   5.7000000000E-01  1  20   H 
4.1000000000E-01   9.3000000000E-01   2.9000000000E-01  1  21   H 
3.7000000000E-01   2.9000000000E-01   9.3000000000E-01  1  22   H 
4.1000000000E-01   2.9000000000E-01   3.7000000000E-01  1  23   H 
9.3000000000E-01   3.7000000000E-01   2.9000000000E-01  1  24   H 
9.1000000000E-01   8.7000000000E-01   7.9000000000E-01  1  25   H 
7.9000000000E-01   9.1000000000E-01   8.7000000000E-01  1  26   H 
8.7000000000E-01   9.1000000000E-01   4.3000000000E-01  1  27   H 
7.9000000000E-01   4.3000000000E-01   9.1000000000E-01  1  28   H 
5.9000000000E-01   6.3000000000E-01   7.0000000000E-02  1  29   H 
8.7000000000E-01   7.9000000000E-01   9.1000000000E-01  1  30   H 
4.3000000000E-01   8.7000000000E-01   9.1000000000E-01  1  31   H 
9.1000000000E-01   7.9000000000E-01   4.3000000000E-01  1  32   H 
7.0000000000E-02   5.9000000000E-01   6.3000000000E-01  1  33   H 
4.3000000000E-01   7.9000000000E-01   8.7000000000E-01  1  34   H 
6.3000000000E-01   5.9000000000E-01   7.1000000000E-01  1  35   H 
8.7000000000E-01   4.3000000000E-01   7.9000000000E-01  1  36   H 
7.0000000000E-02   7.1000000000E-01   5.9000000000E-01  1  37   H 
7.1000000000E-01   5.9000000000E-01   7.0000000000E-02  1  38   H 
7.1000000000E-01   7.0000000000E-02   6.3000000000E-01  1  39   H 
9.1000000000E-01   4.3000000000E-01   8.7000000000E-01  1  40   H 
4.3000000000E-01   9.1000000000E-01   7.9000000000E-01  1  41   H 
6.3000000000E-01   7.0000000000E-02   5.9000000000E-01  1  42   H 
7.1000000000E-01   6.3000000000E-01   5.9000000000E-01  1  43   H 
7.9000000000E-01   8.7000000000E-01   4.3000000000E-01  1  44   H 
5.9000000000E-01   7.0000000000E-02   7.1000000000E-01  1  45   H 
6.3000000000E-01   7.1000000000E-01   7.0000000000E-02  1  46   H 
5.9000000000E-01   7.1000000000E-01   6.3000000000E-01  1  47   H 
7.0000000000E-02   6.3000000000E-01   7.1000000000E-01  1  48   H 
%endblock AtomicCoordinatesAndAtomicSpecies 
MaxSCFIterations 	0  
MD.TypeOfRun    CG   
MD.NumCGsteps   0  
SCF.MustConverge  .False. 
