SystemName		Vacancy in Si cubic supercell
SystemLabel		si7
NumberOfAtoms		7
NumberOfSpecies		1

%block ChemicalSpeciesLabel
	1	14	Si
%endblock ChemicalSpeciesLabel

LatticeConstant	  5.430 Ang

%block LatticeVectors
	1.000	0.000	0.000
	0.000	1.000	0.000
	0.000	0.000	1.000
%endblock LatticeVectors

AtomicCoordinatesFormat	ScaledCartesian

%block AtomicCoordinatesAndAtomicSpecies
    0.500   0.500   0.000   1  Si
    0.500   0.000   0.500   1  Si
    0.000   0.500   0.500   1  Si
    0.250   0.250   0.250   1  Si
    0.750   0.750   0.250   1  Si
    0.750   0.250   0.750   1  Si
    0.250   0.750   0.750   1  Si
%endblock AtomicCoordinatesAndAtomicSpecies

PAO.BasisSize  DZP

%block kgrid.MonkhorstPack
   0   8   8   0.5
   8   0   8   0.5
   8   8   0   0.5
%endblock kgrid.MonkhorstPack

%block BandLines
   1   1.0  1.0  1.0  L
  20   0.0  0.0  0.0  \Gamma
  25   2.0  0.0  0.0  X
  30   2.0  2.0  2.0  \Gamma
%endblock BandLines

	### Unfold options:

BandLinesScale  	pi/a
SaveHS			.true.
RefoldingGcutoff	15.0 Ry

%block UnfoldedBandLines
   250  -20.0  40.0  eV
   1   1.0  1.0  1.0  L
  20   0.0  0.0  0.0  \Gamma
  25   2.0  0.0  0.0  X
  30   2.0  2.0  2.0  \Gamma
%endblock UnfoldedBandLines

%block RefoldingLatticeVectors
  0.000  0.500  0.500
  0.500  0.000  0.500
  0.500  0.500  0.000
%endblock RefoldingLatticeVectors

