SystemName		Si 8 atoms-cubic supercell
SystemLabel		si8
NumberOfAtoms		8
NumberOfSpecies		1

%block ChemicalSpeciesLabel
	1	14	Si
%endblock ChemicalSpeciesLabel

LatticeConstant	  5.430 Ang

%block LatticeVectors
	1.000	0.000	0.000
	0.000	1.000	0.000
	0.000	0.000	1.000
%endblock LatticeVectors

AtomicCoordinatesFormat	ScaledCartesian

%block AtomicCoordinatesAndAtomicSpecies
    0.000   0.000   0.000   1  Si
    0.500   0.500   0.000   1  Si
    0.500   0.000   0.500   1  Si
    0.000   0.500   0.500   1  Si
    0.250   0.250   0.250   1  Si
    0.750   0.750   0.250   1  Si
    0.750   0.250   0.750   1  Si
    0.250   0.750   0.750   1  Si
%endblock AtomicCoordinatesAndAtomicSpecies

PAO.BasisSize  DZP

#%block kgrid.MonkhorstPack
#  18   0   0   0.5
#   0  18   0   0.5
#   0   0  18   0.5
#%endblock kgrid.MonkhorstPack

%block kgrid.MonkhorstPack
   0   9   9   0.5
   9   0   9   0.5
   9   9   0   0.5
%endblock kgrid.MonkhorstPack

COOP.Write			.true.
#WriteBands			.false.
#TimeReversalSymmetryForKpoints	.false.

%block BandLines
   1   1.0  1.0  1.0  L
  20   0.0  0.0  0.0  \Gamma
  25   2.0  0.0  0.0  X
  30   2.0  2.0  2.0  \Gamma
%endblock BandLines

BandLinesScale  pi/a

%block UnfoldedBandLines
  320  -20.0  60 eV
   1   3.0  3.0  3.0
 100   0.0  0.0  0.0
 120   6.0  0.0  0.0
   1   0.0  0.0  0.0
 100   4.0  4.0  0.0
%endblock UnfoldedBandLines

#%block UnfoldedBandLines
#  320  -20.0 60.0 eV
#   1   1.0  1.0  1.0  L
#  20   0.0  0.0  0.0  \Gamma
#  25   2.0  0.0  0.0  X
#  30   2.0  2.0  2.0  \Gamma
#%endblock UnfoldedBandLines

#%block RefoldingLatticeVectors
#  0.000  0.500  0.500
#  0.500  0.000  0.500
#  0.500  0.500  0.000
#%endblock RefoldingLatticeVectors

AllocReportLevel      2
AllocReportThreshold  0
