#--------------------------------------- 
#Input Generated for Space Group Testing 
#--------------------------------------- 
SystemLabel  02-monoclinic-mS.03-spg5.inp 
NumberOfSpecies 1 
%block ChemicalSpeciesLabel 
 1  1  H 
%endblock ChemicalSpeciesLabel 
LatticeConstant  4.0 Ang   
%block LatticeVectors 
3.5000000000E+00  4.0000000000E+00  0.0000000000E+00
-3.5000000000E+00  4.0000000000E+00  0.0000000000E+00
1.5628335990E+00  4.5539510139E-16  8.8632697771E+00
%endblock LatticeVectors 
AtomicCoordinatesFormat  Fractional 
%block AtomicCoordinatesAndAtomicSpecies 
3.2000000000E-01  9.8000000000E-01  1.1000000000E-01  1  1  H
2.0100000000E-01  7.3300000000E-01  6.6000000000E-01  1  2  H
2.6400000000E-01  3.8400000000E-01  3.1415000000E-01  1  3  H
9.8000000000E-01  3.2000000000E-01  8.9000000000E-01  1  4  H
7.3300000000E-01  2.0100000000E-01  3.4000000000E-01  1  5  H
3.8400000000E-01  2.6400000000E-01  6.8585000000E-01  1  6  H
%endblock AtomicCoordinatesAndAtomicSpecies 
MaxSCFIterations 	0  
MD.TypeOfRun    CG   
MD.NumCGsteps   0  
SCF.MustConverge  .False. 
