#--------------------------------------- 
#Input Generated for Space Group Testing 
#--------------------------------------- 
SystemLabel  03-orthorombic-oS.49-spg64.inp 
NumberOfSpecies 1 
%block ChemicalSpeciesLabel 
 1  1  H 
%endblock ChemicalSpeciesLabel 
LatticeConstant  1.0 Ang   
%block LatticeVectors 
  3.5   4.0   0.0  
  -3.5   4.0   0.0  
  5.5109105962e-16   5.5109105962e-16   9.0  
%endblock LatticeVectors 
AtomicCoordinatesFormat  Fractional 
%block AtomicCoordinatesAndAtomicSpecies 
3.2000000000E-01   9.8000000000E-01   1.1000000000E-01  1  1   H 
1.8000000000E-01   5.2000000000E-01   6.1000000000E-01  1  2   H 
4.8000000000E-01   8.2000000000E-01   3.9000000000E-01  1  3   H 
2.0000000000E-02   6.8000000000E-01   8.9000000000E-01  1  4   H 
6.8000000000E-01   2.0000000000E-02   8.9000000000E-01  1  5   H 
8.2000000000E-01   4.8000000000E-01   3.9000000000E-01  1  6   H 
5.2000000000E-01   1.8000000000E-01   6.1000000000E-01  1  7   H 
9.8000000000E-01   3.2000000000E-01   1.1000000000E-01  1  8   H 
%endblock AtomicCoordinatesAndAtomicSpecies 
MaxSCFIterations 	0  
MD.TypeOfRun    CG   
MD.NumCGsteps   0  
SCF.MustConverge  .False. 
