#--------------------------------------- 
#Input Generated for Space Group Testing 
#--------------------------------------- 
SystemLabel  03-orthorombic-oS.26-spg41.inp 
NumberOfSpecies 1 
%block ChemicalSpeciesLabel 
 1  1  H 
%endblock ChemicalSpeciesLabel 
LatticeConstant  1.0 Ang   
%block LatticeVectors 
  7.0   0.0   0.0  
  5.2047488964e-16   4.0   4.5  
  3.0616169979e-17   -4.0   4.5  
%endblock LatticeVectors 
AtomicCoordinatesFormat  Fractional 
%block AtomicCoordinatesAndAtomicSpecies 
1.7000000000E-01   2.6000000000E-01   9.6000000000E-01  1  1   H 
8.3000000000E-01   9.6000000000E-01   2.6000000000E-01  1  2   H 
6.7000000000E-01   4.6000000000E-01   7.6000000000E-01  1  3   H 
3.3000000000E-01   7.6000000000E-01   4.6000000000E-01  1  4   H 
%endblock AtomicCoordinatesAndAtomicSpecies 
MaxSCFIterations 	0  
MD.TypeOfRun    CG   
MD.NumCGsteps   0  
SCF.MustConverge  .False. 
