#--------------------------------------- 
#Input Generated for Space Group Testing 
#--------------------------------------- 
SystemLabel  06-cubic-cF.02-spg196.inp 
NumberOfSpecies 1 
%block ChemicalSpeciesLabel 
 1  1  H 
%endblock ChemicalSpeciesLabel 
LatticeConstant  1.0 Ang   
%block LatticeVectors 
  0.0   4.0   4.0  
  4.0   0.0   4.0  
  4.0   4.0   0.0  
%endblock LatticeVectors 
AtomicCoordinatesFormat  Fractional 
%block AtomicCoordinatesAndAtomicSpecies 
9.0000000000E-02   1.3000000000E-01   2.1000000000E-01  1  1   H 
2.1000000000E-01   9.0000000000E-02   1.3000000000E-01  1  2   H 
1.3000000000E-01   9.0000000000E-02   5.7000000000E-01  1  3   H 
2.1000000000E-01   5.7000000000E-01   9.0000000000E-02  1  4   H 
5.7000000000E-01   2.1000000000E-01   1.3000000000E-01  1  5   H 
1.3000000000E-01   2.1000000000E-01   9.0000000000E-02  1  6   H 
5.7000000000E-01   1.3000000000E-01   9.0000000000E-02  1  7   H 
9.0000000000E-02   2.1000000000E-01   5.7000000000E-01  1  8   H 
1.3000000000E-01   5.7000000000E-01   2.1000000000E-01  1  9   H 
9.0000000000E-02   5.7000000000E-01   1.3000000000E-01  1  10   H 
5.7000000000E-01   9.0000000000E-02   2.1000000000E-01  1  11   H 
2.1000000000E-01   1.3000000000E-01   5.7000000000E-01  1  12   H 
%endblock AtomicCoordinatesAndAtomicSpecies 
MaxSCFIterations 	0  
MD.TypeOfRun    CG   
MD.NumCGsteps   0  
SCF.MustConverge  .False. 
