# -----------------------------------------------------------------------------
# Primitive c-Si supercell, using STRUCT file
# Annealing, HarrisFunctional
# Alberto Garcia, August-December 2005
# -----------------------------------------------------------------------------

SystemName          Primitive silicon, Annealing, Harris, Struct File
SystemLabel         si

NumberOfAtoms       2
NumberOfSpecies     1
MD.Use-Struct-File  T   # Structural information is read from si.STRUCT_IN

%block ChemicalSpeciesLabel
 1  14  Si
%endblock ChemicalSpeciesLabel

PAO.BasisSize       SZ

MeshCutoff          100.0 Ry
%block kgrid-monkhorst-pack
  2 0 0  0.5
  0 2 0  0.5
  0 0 2  0.5
%endblock kgrid-monkhorst-pack

MaxSCFIterations    20  
DM.MixingWeight      0.2 
DM.NumberPulay       3
DM.Tolerance         1.d-3

SolutionMethod       diagon    
ElectronicTemperature  100 K

HarrisFunctional T

MD.TypeOfRun         anneal
MD.AnnealOptions  Temperature
MD.InitialTemperature 100 K
MD.TargetTemperature 600 K
MD.LengthTimeStep  1 fs
MD.TauRelax       25 fs
MD.FinalTimeStep  120


