# -----------------------------------------------------------------------------
# Primitive c-Si supercell, using STRUCT file
# Alberto Garcia, August-September 2005
# -----------------------------------------------------------------------------

SystemName          Primitive silicon
SystemLabel         si

NumberOfAtoms       2
NumberOfSpecies     1
MD.Use-Struct-File  T   # Structural information is read from si.STRUCT_IN

%block ChemicalSpeciesLabel
 1  14  Si
%endblock ChemicalSpeciesLabel

PAO.BasisSize       DZP
PAO.EnergyShift     300 meV

MeshCutoff          200.0 Ry
%block kgrid-monkhorst-pack
  4 0 0  0.5
  0 4 0  0.5
  0 0 4  0.5
%endblock kgrid-monkhorst-pack

MaxSCFIterations    20  
DM.MixingWeight      0.3 
DM.NumberPulay       3
DM.Tolerance         1.d-4

SolutionMethod       diagon    
ElectronicTemperature  25 meV  

MD.TypeOfRun         cg
MD.NumCGsteps        0
MD.MaxCGDispl         0.1  Ang
MD.MaxForceTol        0.04 eV/Ang

