# -----------------------------------------------------------------------------
# FDF for a primitive c-Si supercell 
# Alberto Garcia, August 2005
# -----------------------------------------------------------------------------

SystemName          Primitive silicon
SystemLabel         si

NumberOfAtoms       2
NumberOfSpecies     1

%block ChemicalSpeciesLabel
 1  14  Si
%endblock ChemicalSpeciesLabel

PAO.BasisSize       DZP
PAO.EnergyShift     300 meV

LatticeConstant     5.430 Ang
%block LatticeVectors
  0.500  0.500  0.000
  0.000  0.500  0.500
  0.500  0.000  0.500
%endblock LatticeVectors

MeshCutoff          200.0 Ry
%block kgrid-monkhorst-pack
  4 0 0  0.5
  0 4 0  0.5
  0 0 4  0.5
%endblock kgrid-monkhorst-pack

MaxSCFIterations    20  
DM.MixingWeight      0.3 
DM.NumberPulay       3
DM.Tolerance         1.d-4

SolutionMethod       diagon    
ElectronicTemperature  25 meV  

MD.TypeOfRun         cg
MD.NumCGsteps        0
MD.MaxCGDispl         0.1  Ang
MD.MaxForceTol        0.04 eV/Ang

AtomicCoordinatesFormat  ScaledCartesian
%block AtomicCoordinatesAndAtomicSpecies
    0.000    0.000    0.000   1 #  Si  1
    0.250    0.250    0.250   1 #  Si  2
%endblock AtomicCoordinatesAndAtomicSpecies
