SystemName      Molecular dynamique, 80 mol Water Sandwiched in Pd  -- Load balancing test
SystemLabel     load_1

NumberOfAtoms         336
NumberOfSpecies       3

%block ChemicalSpeciesLabel
  1   46  Pd
  2    8   O
  3    1   H
%endblock ChemicalSpeciesLabel

User.Basis T

XC.functional      GGA
XC.authors         WC

LatticeConstant    3.960 Ang
%block LatticeVectors
2.453200  0.000000  0.000000
0.000000  4.249070  0.000000
0.000000  0.000000  6.557585
%endblock LatticeVectors

MeshCutoff         150.0 Ry

MaxSCFIterations     3
DM.MixingWeight      0.02
DM.Tolerance         4.d-4
DM.NumberPulay       2

SolutionMethod       diagon
ElectronicTemperature   25 meV    # Temp. for Fermi smearing

MD.TypeOfRun          CG        # Type of dynamics:
MD.NumCGSteps         0

AtomicCoordinatesFormat Ang
AtomicCoordinatesAndAtomicSpecies < system_xyz.fdf
