%block AtomicCoordinatesAndAtomicSpecies
      0.0143670      0.0496659     17.1085205      1
      2.4430301      1.4518930     17.1085205      1
      3.2525859      0.0497360     19.3983803      1
      0.8239201      1.4518930     19.3983803      1
      1.6537240      0.0377717     21.6841908      1
      1.6206650      2.8458569     21.6852398      1
      2.4552500      1.4486769     23.9632492      1
      0.0278970      2.8491521     24.0908108      1
      0.0269070      0.0473418     23.9152508      1
      0.0145000      5.6584721     17.1085205      1
      0.0145041      2.8541191     17.1085205      1
      2.4431760      4.2562451     17.1085205      1
      0.8240560      4.2563138     19.3983803      1
      0.0267210      5.6552520     23.9632492      1
      4.0692701      1.4699780     21.6828003      1
      3.2527320      2.8541191     19.3983803      1
      3.2527289      5.6584721     19.3983803      1
      4.0825329      4.2443500     21.6841908      1
      1.6407400      5.6765518     21.6828003      1
      4.0494728      7.0524321     21.6852398      1
      2.4567060      7.0557318     24.0908108      1
      2.4557149      4.2539201     23.9152508      1
      2.4433119      7.0606918     17.1085205      1
      0.8242031      7.0606918     19.3983803      1
      0.0143670      8.4628248     17.1085205      1
      2.4430301      9.8650513     17.1085205      1
      3.2525859      8.4628944     19.3983803      1
      0.8239201      9.8650513     19.3983803      1
      1.6537240      8.4509306     21.6841908      1
      1.6206650     11.2590199     21.6852398      1
      2.4552500      9.8618345     23.9632492      1
      0.0278970     11.2623100     24.0908108      1
      0.0269070      8.4605007     23.9152508      1
      0.0145000     14.0716295     17.1085205      1
      0.0145041     11.2672796     17.1085205      1
      2.4431760     12.6694002     17.1085205      1
      0.8240560     12.6694698     19.3983803      1
      0.0267210     14.0684099     23.9632492      1
      4.0692701      9.8831367     21.6828003      1
      3.2527320     11.2672796     19.3983803      1
      3.2527289     14.0716295     19.3983803      1
      4.0825329     12.6575098     21.6841908      1
      1.6407400     14.0897102     21.6828003      1
      4.0494728     15.4655895     21.6852398      1
      2.4567060     15.4688902     24.0908108      1
      2.4557149     12.6670799     23.9152508      1
      2.4433119     15.4738503     17.1085205      1
      0.8242031     15.4738503     19.3983803      1
      4.8717031      0.0496659     17.1085205      1
      7.3003650      1.4518930     17.1085205      1
      8.1099215      0.0497360     19.3983803      1
      5.6812558      1.4518930     19.3983803      1
      6.5110602      0.0377717     21.6841908      1
      6.4780011      2.8458569     21.6852398      1
      7.3125858      1.4486769     23.9632492      1
      4.8852329      2.8491521     24.0908108      1
      4.8842430      0.0473418     23.9152508      1
      4.8718362      5.6584721     17.1085205      1
      4.8718400      2.8541191     17.1085205      1
      7.3005118      4.2562451     17.1085205      1
      5.6813922      4.2563138     19.3983803      1
      4.8840570      5.6552520     23.9632492      1
      8.9266062      1.4699780     21.6828003      1
      8.1100683      2.8541191     19.3983803      1
      8.1100655      5.6584721     19.3983803      1
      8.9398689      4.2443500     21.6841908      1
      6.4980750      5.6765518     21.6828003      1
      8.9068089      7.0524321     21.6852398      1
      7.3140421      7.0557318     24.0908108      1
      7.3130512      4.2539201     23.9152508      1
      7.3006482      7.0606918     17.1085205      1
      5.6815391      7.0606918     19.3983803      1
      4.8717031      8.4628248     17.1085205      1
      7.3003650      9.8650513     17.1085205      1
      8.1099215      8.4628944     19.3983803      1
      5.6812558      9.8650513     19.3983803      1
      6.5110602      8.4509306     21.6841908      1
      6.4780011     11.2590199     21.6852398      1
      7.3125858      9.8618345     23.9632492      1
      4.8852329     11.2623100     24.0908108      1
      4.8842430      8.4605007     23.9152508      1
      4.8718362     14.0716295     17.1085205      1
      4.8718400     11.2672796     17.1085205      1
      7.3005118     12.6694002     17.1085205      1
      5.6813922     12.6694698     19.3983803      1
      4.8840570     14.0684099     23.9632492      1
      8.9266062      9.8831367     21.6828003      1
      8.1100683     11.2672796     19.3983803      1
      8.1100655     14.0716295     19.3983803      1
      8.9398689     12.6575098     21.6841908      1
      6.4980750     14.0897102     21.6828003      1
      8.9068089     15.4655895     21.6852398      1
      7.3140421     15.4688902     24.0908108      1
      7.3130512     12.6670799     23.9152508      1
      7.3006482     15.4738503     17.1085205      1
      5.6815391     15.4738503     19.3983803      1
      0.8700000      8.5600004      6.1999998      2
      0.0800000      7.9499998      6.0900002      3
      1.4100000      9.0799999      5.3000002      3
      0.2100000      7.0400000     10.4899998      2
     -0.4900000      7.6399999     10.8299999      3
      0.7400000      7.9499998     10.0400000      3
      3.6400001      3.5999999      4.8400002      2
      4.3299999      3.8199999      5.4800000      3
      3.3199999      4.5000000      4.6300001      3
      2.5699999      9.9700003      9.8000002      2
      2.5100000      9.2399998      9.0799999      3
      2.5599999     10.7500000      9.3299999      3
      4.1700001     14.5699997      4.1999998      2
      4.7600002     13.8400002      4.5000000      3
      4.6300001     15.3199997      4.2300000      3
      0.8000000      2.0400000     11.6999998      2
      1.6300000      2.0300000     11.2200003      3
      0.8000000      2.4900000     12.6800003      3
      1.4900000     13.3299999     14.1300001      2
      1.4200000     14.2799997     13.5299997      3
      1.0400000     12.6599998     13.5400000      3
      4.0200000     14.3400002      1.5900000      2
      4.0500002     15.0699997      0.9300000      3
      4.0100002     14.6800003      2.4500000      3
      8.6099997      9.6499996     15.0699997      2
      7.7199998      9.5600004     15.3900003      3
      8.8599997      8.7200003     15.2299995      3
      5.1300001     14.8500004     10.1800003      2
      5.0999999     14.0299997      9.6899996      3
      6.0200000     15.4200001     10.1400003      3
      6.6100001      6.7300000     15.0600004      2
      6.4499998      7.1900001     14.1400003      3
      6.4099998      5.7199998     14.8800001      3
      9.0100002      5.3800001      8.8999996      2
      8.9300003      5.4600000      7.9600000      3
      8.5400000      6.2399998      9.1400003      3
      4.5000000      6.2800002     11.7100000      2
      3.5599999      6.2900000     12.1599998      3
      4.6399999      5.2900000     11.5000000      3
      6.9499998      6.2800002      5.7600002      2
      6.5799999      5.4099998      6.2300000      3
      7.0500002      7.0999999      6.3699999      3
      9.3900003      7.1700001      0.1100000      2
      9.6999998      6.7300000     -0.6900000      3
      8.5900002      6.8299999      0.0200000      3
      0.5200000     10.6800003     12.8900003      2
      0.0700000     10.5299997     13.5900002      3
      1.2600000     10.0600004     12.9499998      3
      7.6799998      1.0599999      1.4100000      2
      8.2500000      0.4700000      0.9300000      3
      6.8299999      0.6400000      0.8500000      3
      0.4100000     13.4700003      9.1300001      2
      0.6200000     14.4200001      9.4399996      3
      1.2400000     13.0200005      9.5200005      3
      9.5500002      9.9899998     10.3100004      2
     10.3400002     10.1099997      9.9399996      3
      9.6400003     10.2700005     11.1700001      3
      9.5799999      2.4300001      5.4899998      2
      8.7799997      2.4800000      4.7300000      3
     10.5799999      2.4000001      5.0200000      3
      6.0999999     12.5200005      4.2199998      2
      6.5999999     12.9399996      3.4200001      3
      6.8400002     12.5500002      4.7500000      3
      8.0400000      4.8499999      2.2200000      2
      7.2300000      5.4800000      2.0999999      3
      8.9200001      5.3699999      2.3099999      3
      6.2600002      8.0799999     12.0000000      2
      6.1100001      9.0299997     11.7200003      3
      5.5100002      7.4899998     11.6800003      3
      1.8700000      4.9400001      9.4399996      2
      0.8500000      5.0700002      9.3199997      3
      2.0699999      5.2900000      8.5299997      3
      0.0300000     14.0400000      0.7900000      2
      0.1700000     14.9099998      1.1100000      3
      0.5900000     13.8699999     -0.0100000      3
      1.3700000      4.7300000      0.6300000      2
      1.6500000      5.0900002     -0.2100000      3
      2.2400000      4.4600000      0.9900000      3
      2.7700000     12.8599997     10.3599997      2
      3.5300000     12.2299995     10.5000000      3
      3.4000001     13.7399998     10.4899998      3
      0.2200000      0.3300000      9.9799995      2
      0.0600000      0.9600000     10.7500000      3
      0.0300000      1.1300000      9.3900003      3
      5.1900001      3.5000000     11.2399998      2
      6.1199999      3.7000000     11.3299999      3
      4.8699999      3.0500000     10.3800001      3
      5.5200000      3.7300000      6.8299999      2
      5.0000000      3.7200000      7.7199998      3
      5.8099999      2.9000001      6.5300002      3
      8.6099997     14.1400003     11.4700003      2
      8.2399998     14.6400003     10.8999996      3
      8.2900000     14.2200003     12.3199997      3
      8.8400002      3.3900001      0.0900000      2
      9.3500004      2.5899999      0.5800000      3
      8.4300003      3.8599999      0.8200000      3
      5.9600000      0.9700000      5.6500001      2
      6.4800000      1.3400000      5.0000000      3
      6.5500002      0.4000000      6.2100000      3
      3.7700000      9.7799997     13.4399996      2
      3.5899999      9.3400002     14.1800003      3
      4.6999998      9.5600004     13.3199997      3
      2.3299999      5.6399999      6.8200002      2
      1.3800000      5.3000002      6.5400000      3
      2.8900001      4.7100000      6.7700000      3
      9.3299999      5.0900002      6.2100000      2
      9.4399996      4.1300001      6.1300001      3
      8.4600000      5.3299999      5.7500000      3
      2.3499999     10.5500002      1.1400000      2
      3.3000000     10.6000004      1.1400000      3
      2.1600001     11.6199999      0.9900000      3
      7.1700001      8.5400000      7.4699998      2
      7.1500001      8.0000000      8.2799997      3
      7.9499998      9.1599998      7.6399999      3
      7.5000000      0.5700000      9.6700001      2
      7.3499999      1.3500000     10.0200005      3
      8.3000002      0.6300000      9.0699997      3
      5.4299998     10.5400000     11.1800003      2
      4.9899998     10.1099997     10.3900003      3
      6.2700000     11.0000000     10.9099998      3
      2.8800001      6.1999998      4.6799998      2
      2.1600001      6.4200001      4.0999999      3
      2.5999999      6.5500002      5.5100002      3
      0.9500000      6.4800000      2.6500001      2
      0.3000000      5.7900000      2.9800000      3
      1.2600000      6.1500001      1.8000000      3
      7.3899999     13.3199997      2.1400001      2
      7.3600001     14.2299995      2.1199999      3
      8.3599997     13.3999996      1.8900000      3
      4.3099999      8.0200005      3.1199999      2
      5.1399999      8.3800001      3.4900000      3
      3.7500000      7.6199999      3.7800000      3
      9.4600000     10.6199999      7.2300000      2
      9.1199999     11.2799997      6.7500000      3
      9.7200003     10.1599998      6.5400000      3
      8.8500004     12.6199999      5.4699998      2
      8.8100004     13.5600004      5.5200000      3
      9.7200003     12.5500002      4.9499998      3
      5.5400000      5.7100000      3.0300000      2
      5.9600000      5.5700002      4.0500002      3
      5.0599999      6.6300001      3.0999999      3
      5.3600001      0.2100000      0.1500000      2
      5.2500000     -0.5700000     -0.4900000      3
      5.4600000      0.8500000     -0.5400000      3
      5.3400002     12.2299995      0.1100000      2
      5.3299999     12.9600000      0.7600000      3
      4.5400000     12.4200001     -0.6000000      3
      4.0999999      4.2500000      1.3600000      2
      4.7500000      4.0799999      0.7100000      3
      4.5700002      4.7800002      1.8300000      3
      7.4899998     11.8500004      9.9200001      2
      8.3500004     11.2100000      9.7900000      3
      7.7399998     12.6000004     10.3599997      3
      4.3800001     13.9300003     13.6999998      2
      4.4800000     13.8999996     12.7100000      3
      3.5200000     14.2100000     13.6599998      3
      2.4500000     10.1599998      4.3800001      2
      3.1400001      9.9600000      3.8800001      3
      1.8500000     10.6300001      3.8900001      3
      6.4899998      9.7700005      3.4600000      2
      7.5500002      9.5500002      3.5799999      3
      6.2900000     10.5400000      3.7900000      3
      0.1200000      6.4400001     12.7299995      2
     -0.4600000      6.8099999     11.9499998      3
      0.9700000      6.9299998     12.7299995      3
      4.0200000      7.7700000      0.0800000      2
      4.0900002      7.5700002      1.0599999      3
      5.0300002      8.1099997     -0.1400000      3
      2.4100001      6.0100002     13.7600002      2
      3.2400000      6.0999999     14.2299995      3
      1.9800000      6.7800002     13.7700005      3
      7.3899999     14.6000004      6.6999998      2
      6.7399998     14.0200005      7.0900002      3
      7.8899999     14.9799995      7.4699998      3
      4.7399998      7.3699999      8.7799997      2
      4.9299998      7.1799998      9.8100004      3
      4.1900001      8.2700005      9.1499996      3
      0.9700000     14.3199997      4.1900001      2
      1.8400000     14.5900002      4.0000000      3
      1.0400000     13.5500002      3.7800000      3
      3.9500000      3.0000000      9.0799999      2
      3.0899999      3.5200000      9.0600004      3
      3.4700000      2.0500000      9.3599997      3
      5.6399999     12.8800001      8.4200001      2
      6.5300002     12.6199999      8.7200003      3
      5.1100001     12.2500000      8.0200005      3
      4.3400002      1.4400001      3.1900001      2
      4.4499998      1.9100000      2.4000001      3
      4.1700001      2.4300001      3.5899999      3
      2.0300000     12.3299999      8.3999996      2
      2.5599999     12.8400002      7.8899999      3
      1.4400001     11.6999998      7.9200001      3
      6.1700001      9.6099997      0.7400000      2
      6.2199998      9.5100002      1.7500000      3
      5.8299999     10.4200001      0.5800000      3
      7.5200000      2.7100000      3.9400001      2
      7.4699998      2.0500000      3.1500001      3
      7.6799998      3.5599999      3.4000001      3
      9.3900003      9.1400003      3.1800001      2
      9.9499998      9.6700001      2.6099999      3
     10.0799999      8.9399996      4.0200000      3
      1.3500000     12.0799999      3.6900001      2
      1.2700000     11.7299995      2.7700000      3
      2.1400001     11.6400003      3.8199999      3
      6.1700001      4.0599999      0.0700000      2
      7.0999999      3.7300000      0.1900000      3
      5.5599999      3.4500000     -0.4500000      3
      2.4700000      1.8400000      4.5200000      2
      2.8699999      2.1400001      3.6500001      3
      2.4400001      0.8400000      4.5200000      3
      2.5000000     15.3999996      6.6799998      2
      2.9100001     15.4899998      7.4499998      3
      3.0899999     15.0000000      6.0100002      3
      4.6799998     10.7200003      6.8699999      2
      5.4400001     10.0600004      6.6399999      3
      4.0599999     10.4399996      6.0999999      3
      8.0299997      3.3199999     10.6199999      2
      8.9200001      3.0599999     11.1000004      3
      8.1300001      4.1300001      9.9899998      3
      7.6900001     13.9799995     14.0799999      2
      6.8400002     13.3400002     14.3199997      3
      8.5100002     13.8999996     14.7700005      3
      4.4400001      1.4299999     13.6599998      2
      3.3900001      1.6600000     13.5600004      3
      4.7500000      2.0000000     12.7700005      3
      3.0599999     16.2700005      9.3999996      2
      2.3699999     16.2800007      9.8999996      3
      3.9200001     15.9499998      9.7299995      3
      1.4200000     15.8400002     13.3999996      2
      0.9300000     16.4500008     12.5699997      3
      2.4300001     16.0900002     13.2600002      3
      9.3999996     16.4899998      7.6799998      2
      9.3100004     17.2000008      6.9600000      3
     10.2700005     16.5699997      7.9600000      3
      0.6800000     16.8199997      0.3100000      2
      0.7000000     16.6700001     -0.6300000      3
      1.5400000     16.9099998      0.6400000      3
      1.6500000      0.2500000      2.3299999      2
      2.5400000      0.3300000      2.7300000      3
      1.0700001      0.4700000      3.0599999      3
%endblock AtomicCoordinatesAndAtomicSpecies
