#--------------------------------------- 
#Input Generated for Space Group Testing 
#--------------------------------------- 
SystemLabel  06-cubic-cI.17-spg211.inp 
NumberOfSpecies 1 
%block ChemicalSpeciesLabel 
 1  1  H 
%endblock ChemicalSpeciesLabel 
LatticeConstant  1.0 Ang   
%block LatticeVectors 
  -4.0   4.0   4.0  
  4.0   -4.0   4.0  
  4.0   4.0   -4.0  
%endblock LatticeVectors 
AtomicCoordinatesFormat  Fractional 
%block AtomicCoordinatesAndAtomicSpecies 
2.6000000000E-01   2.8000000000E-01   3.2000000000E-01  1  1   H 
3.2000000000E-01   2.6000000000E-01   2.8000000000E-01  1  2   H 
9.6000000000E-01   9.4000000000E-01   6.8000000000E-01  1  3   H 
4.0000000000E-02   7.2000000000E-01   9.8000000000E-01  1  4   H 
6.0000000000E-02   4.0000000000E-02   3.2000000000E-01  1  5   H 
2.8000000000E-01   3.2000000000E-01   2.6000000000E-01  1  6   H 
6.8000000000E-01   9.6000000000E-01   9.4000000000E-01  1  7   H 
9.8000000000E-01   4.0000000000E-02   7.2000000000E-01  1  8   H 
3.2000000000E-01   6.0000000000E-02   4.0000000000E-02  1  9   H 
7.4000000000E-01   6.0000000000E-02   2.0000000000E-02  1  10   H 
7.2000000000E-01   7.4000000000E-01   6.8000000000E-01  1  11   H 
2.0000000000E-02   7.4000000000E-01   6.0000000000E-02  1  12   H 
2.8000000000E-01   9.6000000000E-01   2.0000000000E-02  1  13   H 
9.6000000000E-01   2.0000000000E-02   2.8000000000E-01  1  14   H 
9.4000000000E-01   2.6000000000E-01   9.8000000000E-01  1  15   H 
9.4000000000E-01   6.8000000000E-01   9.6000000000E-01  1  16   H 
7.2000000000E-01   9.8000000000E-01   4.0000000000E-02  1  17   H 
4.0000000000E-02   3.2000000000E-01   6.0000000000E-02  1  18   H 
6.8000000000E-01   7.2000000000E-01   7.4000000000E-01  1  19   H 
6.0000000000E-02   2.0000000000E-02   7.4000000000E-01  1  20   H 
2.0000000000E-02   2.8000000000E-01   9.6000000000E-01  1  21   H 
9.8000000000E-01   9.4000000000E-01   2.6000000000E-01  1  22   H 
7.4000000000E-01   6.8000000000E-01   7.2000000000E-01  1  23   H 
2.6000000000E-01   9.8000000000E-01   9.4000000000E-01  1  24   H 
%endblock AtomicCoordinatesAndAtomicSpecies 
MaxSCFIterations 	0  
MD.TypeOfRun    CG   
MD.NumCGsteps   0  
SCF.MustConverge  .False. 
