SystemName              FePt-L1_0
SystemLabel             fept
NumberOfAtoms           2
NumberOfSpecies         2
%block Chemical_Species_label
        1       26      Fe
        2       78      Pt
%endblock Chemical_Species_label

PAO.EnergyShift  100 meV
PAO.SplitNorm      0.15
%Block PAO.Basis
 Fe   2
   n=4   0   2   P
    0.0   0.0
   n=3   2   2
    0.0   0.0
 Pt   2
   n=6     0       2    P
    0.00000     0.00000
   n=5     2       2
    0.00000     0.00000
%EndBlock PAO.Basis

AtomicCoordinatesFormat NotScaledCartesianAng
%block LatticeVectors
    2.793068700    0.000000000    0.000000000
    0.000000000    2.793068700    0.000000000
    0.000000000    0.000000000    3.792000000
%endblock LatticeVectors
LatticeConstant  1.0 Ang

%block AtomicCoordinatesAndAtomicSpecies
    1.396535500    1.396535500    0.000000000  1   
    0.000000000    0.000000000    1.896000000  2   
%endblock AtomicCoordinatesAndAtomicSpecies

SpinPolarized           T
NonCollinearSpin        T
SpinOrbit               T
#WriteOrbMom             T
%block DM.InitSpin
 1  +1.  90.  90.
 2  +1.  90.  90.
%endblock DM.InitSpin

#KgridCutoff         50. Ang

%block kgrid_Monkhorst_Pack
  41   0   0    0.0
   0  41   0    0.0
   0   0  20    0.5
%endblock kgrid_Monkhorst_Pack



xc.functional           GGA
xc.authors              PBE
MeshCutoff              2200. Ry
SolutionMethod          diagon
ElectronicTemperature   50 meV

DM.Tolerance            0.5E-4
MaxSCFIterations        600
DM.MixingWeight         0.005
DM.NumberPulay          6
DM.UseSaveDM            T
DM.NumberKick           50
#Diag.DivideAndConquer   F

WriteMullikenPop       1
#WriteEigenvalues       T
WriteForces            T
WriteCoorStep          T
#WriteCoorXmol          F
#WriteMDXmol            F

#%block ProjectedDensityOfStates
#-20.00 10.00 0.200 500 eV
#%endblock ProjectedDensityOfStates

#MD.TypeOfRun    CG
#MD.NumCGsteps   100
#MD.MaxCGDispl   0.10 Ang
#MD.MaxForceTol  0.01 eV/Ang
#MD.UseSaveCG   .true.
#MD.UseSaveXV   .true.
#MD.MaxStressTol         0.0001 eV/Ang**3
