#--------------------------------------- 
#Input Generated for Space Group Testing 
#--------------------------------------- 
SystemLabel  06-cubic-cP.19-spg213.inp 
NumberOfSpecies 1 
%block ChemicalSpeciesLabel 
 1  1  H 
%endblock ChemicalSpeciesLabel 
LatticeConstant  1.0 Ang   
%block LatticeVectors 
  8.0   0.0   0.0  
  0.0   8.0   0.0  
  0.0   0.0   8.0  
%endblock LatticeVectors 
AtomicCoordinatesFormat  Fractional 
%block AtomicCoordinatesAndAtomicSpecies 
1.7000000000E-01   1.5000000000E-01   1.1000000000E-01  1  1   H 
1.1000000000E-01   1.7000000000E-01   1.5000000000E-01  1  2   H 
3.3000000000E-01   8.5000000000E-01   6.1000000000E-01  1  3   H 
8.3000000000E-01   6.5000000000E-01   3.9000000000E-01  1  4   H 
9.0000000000E-01   4.2000000000E-01   1.4000000000E-01  1  5   H 
1.5000000000E-01   1.1000000000E-01   1.7000000000E-01  1  6   H 
6.1000000000E-01   3.3000000000E-01   8.5000000000E-01  1  7   H 
3.9000000000E-01   8.3000000000E-01   6.5000000000E-01  1  8   H 
1.4000000000E-01   9.0000000000E-01   4.2000000000E-01  1  9   H 
6.7000000000E-01   3.5000000000E-01   8.9000000000E-01  1  10   H 
6.0000000000E-01   5.8000000000E-01   6.4000000000E-01  1  11   H 
8.9000000000E-01   6.7000000000E-01   3.5000000000E-01  1  12   H 
1.0000000000E-01   9.2000000000E-01   3.6000000000E-01  1  13   H 
9.2000000000E-01   3.6000000000E-01   1.0000000000E-01  1  14   H 
4.0000000000E-01   8.0000000000E-02   8.6000000000E-01  1  15   H 
8.5000000000E-01   6.1000000000E-01   3.3000000000E-01  1  16   H 
6.5000000000E-01   3.9000000000E-01   8.3000000000E-01  1  17   H 
4.2000000000E-01   1.4000000000E-01   9.0000000000E-01  1  18   H 
6.4000000000E-01   6.0000000000E-01   5.8000000000E-01  1  19   H 
3.5000000000E-01   8.9000000000E-01   6.7000000000E-01  1  20   H 
3.6000000000E-01   1.0000000000E-01   9.2000000000E-01  1  21   H 
8.6000000000E-01   4.0000000000E-01   8.0000000000E-02  1  22   H 
5.8000000000E-01   6.4000000000E-01   6.0000000000E-01  1  23   H 
8.0000000000E-02   8.6000000000E-01   4.0000000000E-01  1  24   H 
%endblock AtomicCoordinatesAndAtomicSpecies 
MaxSCFIterations 	0  
MD.TypeOfRun    CG   
MD.NumCGsteps   0  
SCF.MustConverge  .False. 
