SystemName		Bulk FCC Al
SystemLabel		Al
NumberOfAtoms		1
NumberOfSpecies		1

%block ChemicalSpeciesLabel
	1	13	Al
%endblock ChemicalSpeciesLabel

LatticeConstant	  4.05 Ang

%block LatticeVectors
	0.000	0.500	0.500
	0.500	0.000	0.500
	0.500	0.500	0.000
%endblock LatticeVectors

AtomicCoordinatesFormat	ScaledCartesian

%block AtomicCoordinatesAndAtomicSpecies
    0.0  0.0  0.0   1  Al
%endblock AtomicCoordinatesAndAtomicSpecies

PAO.BasisSize  DZP

%block kgrid.MonkhorstPack
  18   0   0   0.5
   0  18   0   0.5
   0   0  18   0.5
%endblock kgrid.MonkhorstPack

%block BandLines
   1   1.0  1.0  1.0  L
  20   0.0  0.0  0.0  \Gamma
  25   2.0  0.0  0.0  X
  30   2.0  2.0  2.0  \Gamma
%endblock BandLines

BandLinesScale  	pi/a
SaveHS			.true.
RefoldingGcutoff	20.0 Ry

#%block UnfoldedBandLines
# 100  -20.0 30.0 eV
#   1   0.0  0.0  0.0
# 100  10.0  0.0  0.0
#   1   0.0  0.0  0.0
# 100   1.0  1.0  1.0
#%endblock UnfoldedBandLines

%block UnfoldedBandLines
  320  -20.0 60.0 eV
   1   4.0  4.0  4.0
  60   0.0  0.0  0.0
  75   8.0  0.0  0.0
%endblock UnfoldedBandLines

#%block UnfoldedBandLines
#  320  -20.0 60.0 eV
#   1   1.0  1.0  1.0  L
#  20   0.0  0.0  0.0  \Gamma
#  25   2.0  0.0  0.0  X
#  30   2.0  2.0  2.0  \Gamma
#%endblock UnfoldedBandLines

%block RefoldingLatticeVectors
  0.000  0.500  0.500
  0.500  0.000  0.500
  0.500  0.500  0.000
%endblock RefoldingLatticeVectors


