# -----------------------------------------------------------------------------
# FDF for diamond-like silicon      
#
# -----------------------------------------------------------------------------

SystemName       bulk silicon  
SystemLabel            Si      


NumberOfSpecies        1       
NumberOfAtoms          2      

%block ChemicalSpeciesLabel
  1  14  Si
%endblock ChemicalSpeciesLabel

#Set up the LatticeConstant variable to the equilibrium value
LatticeConstant     5.43 Ang

%block LatticeVectors
  0.000  0.500  0.500
  0.500  0.000  0.500
  0.500  0.500  0.000
%endblock LatticeVectors

kgrid_cutoff        5 Ang

MeshCutoff          50.0 Ry

MaxSCFIterations    50  
DM.MixingWeight      0.3 
DM.NumberPulay       3  
DM.Tolerance         1.d-4
DM.UseSaveDM

AtomicCoordinatesFormat  ScaledCartesian
%block AtomicCoordinatesAndAtomicSpecies
    0.000    0.000    0.000   1 #  Si  1
    0.250    0.250    0.250   1 #  Si  2
%endblock AtomicCoordinatesAndAtomicSpecies

WriteMullikenPop        1       

BandLinesScales     pi/a
%block BandLines
   1  1.000  1.000  1.000  L        # Begin at L
  20  0.000  0.000  0.000  \Gamma   # 20 points from L to gamma
  25  2.000  0.000  0.000  X        # 25 points from gamma to X
  30  2.000  2.000  2.000  \Gamma   # 30 points from X to gamma
%endblock BandLines

%block ProjectedDensityOfStates
  -20.00  10.00  0.200  500  eV
%endblock ProjectedDensityOfStates

