#--------------------------------------- 
#Input Generated for Space Group Testing 
#--------------------------------------- 
SystemLabel  05-hexagonal-hR.31-spg173.inp 
NumberOfSpecies 1 
%block ChemicalSpeciesLabel 
 1  1  H 
%endblock ChemicalSpeciesLabel 
LatticeConstant  10.0 Ang   
%block LatticeVectors 
1.0000000000E+00  0.0000000000E+00  0.0000000000E+00
-5.0000000000E-01  8.6602540378E-01  0.0000000000E+00
6.1232339957E-17  1.0605752387E-16  1.0000000000E+00
%endblock LatticeVectors 
AtomicCoordinatesFormat  Fractional 
%block AtomicCoordinatesAndAtomicSpecies 
1.7000000000E-01  1.5000000000E-01  1.1000000000E-01  1
7.3400000000E-01  4.6700000000E-01  6.6000000000E-01  1
4.4000000000E-01  8.2400000000E-01  3.1415000000E-01  1
2.0000000000E-02  1.7000000000E-01  6.1000000000E-01  1
2.6700000000E-01  7.3400000000E-01  1.6000000000E-01  1
6.1600000000E-01  4.4000000000E-01  8.1415000000E-01  1
8.5000000000E-01  2.0000000000E-02  1.1000000000E-01  1
5.3300000000E-01  2.6700000000E-01  6.6000000000E-01  1
1.7600000000E-01  6.1600000000E-01  3.1415000000E-01  1
8.3000000000E-01  8.5000000000E-01  6.1000000000E-01  1
2.6600000000E-01  5.3300000000E-01  1.6000000000E-01  1
5.6000000000E-01  1.7600000000E-01  8.1415000000E-01  1
9.8000000000E-01  8.3000000000E-01  1.1000000000E-01  1
7.3300000000E-01  2.6600000000E-01  6.6000000000E-01  1
3.8400000000E-01  5.6000000000E-01  3.1415000000E-01  1
1.5000000000E-01  9.8000000000E-01  6.1000000000E-01  1
4.6700000000E-01  7.3300000000E-01  1.6000000000E-01  1
8.2400000000E-01  3.8400000000E-01  8.1415000000E-01  1
%endblock AtomicCoordinatesAndAtomicSpecies 
MaxSCFIterations 	0  
MD.TypeOfRun    CG   
MD.NumCGsteps   0  
SCF.MustConverge  .False. 
