#--------------------------------------- 
#Input Generated for Space Group Testing 
#--------------------------------------- 
SystemLabel  04-tetragonal-tI.48-spg122.inp 
NumberOfSpecies 1 
%block ChemicalSpeciesLabel 
 1  1  H 
%endblock ChemicalSpeciesLabel 
LatticeConstant  1.0 Ang   
%block LatticeVectors 
  -3.5   3.5   4.5  
  3.5   -3.5   4.5  
  3.5   3.5   -4.5  
%endblock LatticeVectors 
AtomicCoordinatesFormat  Fractional 
%block AtomicCoordinatesAndAtomicSpecies 
2.6000000000E-01   2.8000000000E-01   3.2000000000E-01  1  1   H 
6.0000000000E-02   7.4000000000E-01   2.0000000000E-02  1  2   H 
7.9000000000E-01   9.7000000000E-01   4.8000000000E-01  1  3   H 
9.6000000000E-01   9.4000000000E-01   6.8000000000E-01  1  4   H 
6.9000000000E-01   2.1000000000E-01   1.8000000000E-01  1  5   H 
3.0000000000E-02   5.1000000000E-01   8.2000000000E-01  1  6   H 
7.2000000000E-01   4.0000000000E-02   9.8000000000E-01  1  7   H 
4.9000000000E-01   3.1000000000E-01   5.2000000000E-01  1  8   H 
%endblock AtomicCoordinatesAndAtomicSpecies 
MaxSCFIterations 	0  
MD.TypeOfRun    CG   
MD.NumCGsteps   0  
SCF.MustConverge  .False. 
