SystemName          Oxygen
NumberOfAtoms       1
NumberOfSpecies     1

PAO.BasisSize SZ

%block ChemicalSpeciesLabel
 1  8  O      # Species index, atomic number, species label
%endblock ChemicalSpeciesLabel

