SystemName      Nanoparticle of Barium titanate; 2 x 2 x 2
#               BaO terminated
#               400 Ry + 7 internal points
#               30 Ang of cell side length 
#               25 K electronic temperature
SystemLabel     load_particle
NumberOfSpecies		3
NumberOfAtoms		71
%block ChemicalSpeciesLabel
      1      56     Ba
      2      22     Ti
      3       8     O
%endblock ChemicalSpeciesLabel

PAO.BasisType    split
block PAO.Basis < BaTiO3basis.fdf
%block PS.lmax
   Ba    3
   Ti    3
    O    3
%endblock PS.lmax

LatticeConstant  30.0 Ang
%block LatticeVectors
  1.00  0.00  0.00
  0.00  1.00  0.00
  0.00  0.00  1.00
%endblock LatticeVectors

AtomicCoordinatesFormat    ScaledCartesian
%block AtomicCoordinatesAndAtomicSpecies
  0.00000   0.00000   0.00000  1  
  3.73032   3.73032   0.00000  3  
  3.73032   3.73032   3.73032  2  
  3.73032   0.00000   3.73032  3  
  0.00000   3.73032   3.73032  3  
  7.46064   0.00000   0.00000  1  
 11.19096   3.73032   0.00000  3  
 11.19096   3.73032   3.73032  2  
 11.19096   0.00000   3.73032  3  
  7.46064   3.73032   3.73032  3  
 14.92128   0.00000   0.00000  1  
 14.92128   3.73032   3.73032  3  
  0.00000   7.46064   0.00000  1  
  3.73032  11.19096   0.00000  3  
  3.73032  11.19096   3.73032  2  
  3.73032   7.46064   3.73032  3  
  0.00000  11.19096   3.73032  3  
  7.46064   7.46064   0.00000  1  
 11.19096  11.19096   0.00000  3  
 11.19096  11.19096   3.73032  2  
 11.19096   7.46064   3.73032  3  
  7.46064  11.19096   3.73032  3  
 14.92128   7.46064   0.00000  1  
 14.92128  11.19096   3.73032  3  
  0.00000  14.92128   0.00000  1  
  3.73032  14.92128   3.73032  3  
  7.46064  14.92128   0.00000  1  
 11.19096  14.92128   3.73032  3  
 14.92128  14.92128   0.00000  1  
  0.00000   0.00000   7.46064  1  
  3.73032   3.73032   7.46064  3  
  3.73032   3.73032  11.19096  2  
  3.73032   0.00000  11.19096  3  
  0.00000   3.73032  11.19096  3  
  7.46064   0.00000   7.46064  1  
 11.19096   3.73032   7.46064  3  
 11.19096   3.73032  11.19096  2  
 11.19096   0.00000  11.19096  3  
  7.46064   3.73032  11.19096  3  
 14.92128   0.00000   7.46064  1  
 14.92128   3.73032  11.19096  3  
  0.00000   7.46064   7.46064  1  
  3.73032  11.19096   7.46064  3  
  3.73032  11.19096  11.19096  2  
  3.73032   7.46064  11.19096  3  
  0.00000  11.19096  11.19096  3  
  7.46064   7.46064   7.46064  1  
 11.19096  11.19096   7.46064  3  
 11.19096  11.19096  11.19096  2  
 11.19096   7.46064  11.19096  3  
  7.46064  11.19096  11.19096  3  
 14.92128   7.46064   7.46064  1  
 14.92128  11.19096  11.19096  3  
  0.00000  14.92128   7.46064  1  
  3.73032  14.92128  11.19096  3  
  7.46064  14.92128   7.46064  1  
 11.19096  14.92128  11.19096  3  
 14.92128  14.92128   7.46064  1  
  0.00000   0.00000  14.92128  1  
  3.73032   3.73032  14.92128  3  
  7.46064   0.00000  14.92128  1  
 11.19096   3.73032  14.92128  3  
 14.92128   0.00000  14.92128  1  
  0.00000   7.46064  14.92128  1  
  3.73032  11.19096  14.92128  3  
  7.46064   7.46064  14.92128  1  
 11.19096  11.19096  14.92128  3  
 14.92128   7.46064  14.92128  1  
  0.00000  14.92128  14.92128  1  
  7.46064  14.92128  14.92128  1   
 14.92128  14.92128  14.92128  1   
%endblock AtomicCoordinatesAndAtomicSpecies

MeshCutoff             400 Ry

DM.NumberPulay         3
DM.UseSaveDM           T 
DM.MixingWeight        0.0200      # New DM amount for next SCF cycle
DM.Tolerance           1.d-5       # Tolerance in maximum difference
                                   # between input and output DM
ElectronicTemperature  25 K
MaxSCFIterations       2

MD.TypeOfRun            cg
MD.NumCGsteps           0
