#--------------------------------------- 
#Input Generated for Space Group Testing 
#--------------------------------------- 
SystemLabel  04-tetragonal-tI.33-spg107.inp 
NumberOfSpecies 1 
%block ChemicalSpeciesLabel 
 1  1  H 
%endblock ChemicalSpeciesLabel 
LatticeConstant  10.0 Ang   
%block LatticeVectors 
-3.5000000000E+00  3.5000000000E+00  4.5000000000E+00
3.5000000000E+00 -3.5000000000E+00  4.5000000000E+00
3.5000000000E+00  3.5000000000E+00 -4.5000000000E+00
%endblock LatticeVectors 
AtomicCoordinatesFormat  Fractional 
%block AtomicCoordinatesAndAtomicSpecies 
2.6000000000E-01  2.8000000000E-01  3.2000000000E-01  1
1.2700000000E-01  3.9400000000E-01  2.0100000000E-01  1
1.3815000000E-01  7.5415000000E-01  2.6400000000E-01  1
2.8000000000E-01  9.6000000000E-01  2.0000000000E-02  1
3.9400000000E-01  1.9300000000E-01  2.6700000000E-01  1
7.5415000000E-01  4.9015000000E-01  6.1600000000E-01  1
9.6000000000E-01  2.8000000000E-01  2.0000000000E-02  1
1.9300000000E-01  3.9400000000E-01  2.6700000000E-01  1
4.9015000000E-01  7.5415000000E-01  6.1600000000E-01  1
9.6000000000E-01  9.4000000000E-01  6.8000000000E-01  1
1.9300000000E-01  9.2600000000E-01  7.9900000000E-01  1
4.9015000000E-01  8.7415000000E-01  7.3600000000E-01  1
2.8000000000E-01  2.6000000000E-01  3.2000000000E-01  1
3.9400000000E-01  1.2700000000E-01  2.0100000000E-01  1
7.5415000000E-01  1.3815000000E-01  2.6400000000E-01  1
9.4000000000E-01  9.6000000000E-01  6.8000000000E-01  1
9.2600000000E-01  1.9300000000E-01  7.9900000000E-01  1
8.7415000000E-01  4.9015000000E-01  7.3600000000E-01  1
9.4000000000E-01  2.6000000000E-01  9.8000000000E-01  1
9.2600000000E-01  1.2700000000E-01  7.3300000000E-01  1
8.7415000000E-01  1.3815000000E-01  3.8400000000E-01  1
2.6000000000E-01  9.4000000000E-01  9.8000000000E-01  1
1.2700000000E-01  9.2600000000E-01  7.3300000000E-01  1
1.3815000000E-01  8.7415000000E-01  3.8400000000E-01  1
%endblock AtomicCoordinatesAndAtomicSpecies 
MaxSCFIterations 	0  
MD.TypeOfRun    CG   
MD.NumCGsteps   0  
SCF.MustConverge  .False. 
