#--------------------------------------- 
#Input Generated for Space Group Testing 
#--------------------------------------- 
SystemLabel  03-orthorombic-oS.23-spg38.inp 
NumberOfSpecies 1 
%block ChemicalSpeciesLabel 
 1  1  H 
%endblock ChemicalSpeciesLabel 
LatticeConstant  5.0 Ang   
%block LatticeVectors 
7.0000000000E+00  0.0000000000E+00  0.0000000000E+00
5.2047488964E-16  4.0000000000E+00  4.5000000000E+00
3.0616169979E-17 -4.0000000000E+00  4.5000000000E+00 
%endblock LatticeVectors 
AtomicCoordinatesFormat  Fractional 
%block AtomicCoordinatesAndAtomicSpecies 
1.7000000000E-01  2.6000000000E-01  9.6000000000E-01  1  1  H
7.3400000000E-01  1.2700000000E-01  1.9300000000E-01  1  2  H
4.4000000000E-01  1.3815000000E-01  4.9015000000E-01  1  3  H
8.3000000000E-01  9.6000000000E-01  2.6000000000E-01  1  4  H
2.6600000000E-01  1.9300000000E-01  1.2700000000E-01  1  5  H
5.6000000000E-01  4.9015000000E-01  1.3815000000E-01  1  6  H
1.7000000000E-01  9.6000000000E-01  2.6000000000E-01  1  7  H
7.3400000000E-01  1.9300000000E-01  1.2700000000E-01  1  8  H
4.4000000000E-01  4.9015000000E-01  1.3815000000E-01  1  9  H
8.3000000000E-01  2.6000000000E-01  9.6000000000E-01  1  10  H
2.6600000000E-01  1.2700000000E-01  1.9300000000E-01  1  11  H
5.6000000000E-01  1.3815000000E-01  4.9015000000E-01  1  12  H
%endblock AtomicCoordinatesAndAtomicSpecies 
MaxSCFIterations 	0  
MD.TypeOfRun    CG   
MD.NumCGsteps   0  
SCF.MustConverge  .False. 
