#--------------------------------------- 
#Input Generated for Space Group Testing 
#--------------------------------------- 
SystemLabel  04-tetragonal-tI.34-spg108.inp 
NumberOfSpecies 1 
%block ChemicalSpeciesLabel 
 1  1  H 
%endblock ChemicalSpeciesLabel 
LatticeConstant  1.0 Ang   
%block LatticeVectors 
  -3.5   3.5   4.5  
  3.5   -3.5   4.5  
  3.5   3.5   -4.5  
%endblock LatticeVectors 
AtomicCoordinatesFormat  Fractional 
%block AtomicCoordinatesAndAtomicSpecies 
2.6000000000E-01   2.8000000000E-01   3.2000000000E-01  1  1   H 
2.8000000000E-01   9.6000000000E-01   2.0000000000E-02  1  2   H 
4.6000000000E-01   7.8000000000E-01   2.0000000000E-02  1  3   H 
9.6000000000E-01   9.4000000000E-01   6.8000000000E-01  1  4   H 
7.8000000000E-01   7.6000000000E-01   3.2000000000E-01  1  5   H 
4.4000000000E-01   4.6000000000E-01   6.8000000000E-01  1  6   H 
9.4000000000E-01   2.6000000000E-01   9.8000000000E-01  1  7   H 
7.6000000000E-01   4.4000000000E-01   9.8000000000E-01  1  8   H 
%endblock AtomicCoordinatesAndAtomicSpecies 
MaxSCFIterations 	0  
MD.TypeOfRun    CG   
MD.NumCGsteps   0  
SCF.MustConverge  .False. 
