SystemName          ptcda-A_Au
SystemLabel         au-surface 

NumberOfAtoms       128
NumberOfSpecies       1

%block ChemicalSpeciesLabel
  1  79  Au
%endblock ChemicalSpeciesLabel

PAO.BasisSize    SZ
PAO.EnergyShift  0.005 Ry

XC.functional    GGA
XC.authors       PBE


LatticeConstant      1.0000 Ang
%block LatticeVectors
  11.851110    0.00000   0.00000
    0.00000   20.52670   0.00000
    0.00000    0.00000  50.00000
%endblock LatticeVectors

MeshCutoff          225.0 Ry

MaxSCFIterations     200
DM.MixingWeight      0.003
DM.NumberPulay       5
DM.Tolerance         1.d-4

SolutionMethod       diagon

DivideAndConquer      true

# WriteDenchar          true




MD.TypeOfRun          CG
MD.NumCGSteps          0

# SaveElectrostaticPotential   true
SaveHS                       true

DM.UseSaveDM                 true


AtomicCoordinatesFormat Ang
%block AtomicCoordinatesAndAtomicSpecies
     11.7702194     20.3946893      7.0381823    1
      1.4073056      2.4069528      7.0576851    1
      1.4058199      0.6948682     1.6220573   1
     11.7921150      3.3196587     1.6375413   1
      0.0000000      1.6876581      2.3678560    1
      1.4615547     1.2191441      2.3678560   1
      0.0000000      0.0000000      0.0000000    1
      1.4615547      2.5314861      0.0000000    1
     11.7789400      5.0106192      7.0176162    1
      1.3729947      7.5501179      7.0690121    1
      1.4320353      5.8634967     1.7007780   1
     11.7729082      8.4245863     1.6669423   1
      0.0000000      6.7506302      2.3678560    1
      1.4615547      9.2821163      2.3678560    1
      0.0000000      5.0629721      0.0000000    1
      1.4615547      7.5944582      0.0000000    1
     11.7671929     10.1238585      7.1052341    1
      1.4376809     12.6563222      7.1363129    1
      1.3950014     10.9735988     1.7090189   1
     11.7965910     13.5144222     1.6450853   1
      0.0000000     11.8136023      2.3678560    1
      1.4615547     14.3450905      2.3678560    1
      0.0000000     10.1259463      0.0000000    1
      1.4615547     12.6574324      0.0000000    1
     11.7876549     15.2412979      6.9639703    1
      1.3831263     17.8109049      6.9778569    1
      1.4365350     16.0647060     1.6693815   1
     11.7645855     18.6594986     1.6479342   1
      0.0000000     16.8765765      2.3678560    1
      1.4615547     19.4080626      2.3678560    1
      0.0000000     15.1889185      0.0000000    1
      1.4615547     17.7204045      0.0000000    1
      2.8846120     20.4090374      6.9837115    1
     1.3581368      2.4243000      7.0859866   1
     1.3763118      0.6765756    1.6070113     1
      2.8985786      3.2717646     1.7122053   1
      2.9231083      1.6876581      2.3678560    1
     1.3846630    1.2191441      2.3678560     1
      2.9231083      0.0000000      0.0000000    1
     1.3846630      2.5314861      0.0000000   1
      2.8807373     1.9796208      7.0973475   1
     1.3545352      7.6053676      6.9985729   1
     1.3583327      5.8377059    1.6858683     1
      2.8705426      8.4208739     1.6846636   1
      2.9231083      6.7506302      2.3678560    1
     1.3846630      9.2821163      2.3678560   1
      2.9231083      5.0629721      0.0000000    1
     1.3846630      7.5944582      0.0000000   1
      2.8716857     10.1347132      7.0348852    1
     1.3903316     12.7007470      7.1309618   1
     1.3860374     10.9535719    1.6979648     1
      2.8952354     13.4783152     1.7177578   1
      2.9231083     11.8136023      2.3678560    1
     1.3846630     14.3450905      2.3678560   1
      2.9231083     10.1259463      0.0000000    1
     1.3846630     12.6574324      0.0000000   1
      2.9184695     15.2437992      7.0214240    1
     1.3972372     17.8524856      7.0082030   1
     1.3974524     16.0471135    1.6891768     1 
      2.8994841     18.6311021     1.6787399   1
      2.9231083     16.8765765      2.3678560    1
     1.3846630     19.4080626      2.3678560   1
      2.9231083     15.1889185      0.0000000    1
     1.3846630     17.7204045      0.0000000   1
      5.8687736     20.3975292      6.9907268    1
      7.3071565      2.3708693      7.0936776    1
      7.3521314      0.6819490     1.6298899   1
      5.8468421      3.2538572     1.7080697   1
      5.8462177      1.6876581      2.3678560    1
      7.3077713     1.2191441      2.3678560   1
      5.8462177      0.0000000      0.0000000    1
      7.3077713      2.5314861      0.0000000    1
      5.8338079      5.0012171      7.0000592    1
      7.3598237      7.5598476      7.0130887    1
      7.3235338      5.8619764     1.6687627   1
      5.8549763      8.4152487     1.6849173   1
      5.8462177      6.7506302      2.3678560    1
      7.3077713      9.2821163      2.3678560    1
      5.8462177      5.0629721      0.0000000    1
      7.3077713      7.5944582      0.0000000    1
      5.8744707     10.1561568      7.0661413    1
      7.3292140     12.6806342      7.0971928    1
      7.3467690     10.9680416     1.7058653   1
      5.8414264     13.4997167     1.7113634   1
      5.8462177     11.8136023      2.3678560    1
      7.3077713     14.3450905      2.3678560    1
      5.8462177     10.1259463      0.0000000    1
      7.3077713     12.6574324      0.0000000    1
      5.8690132     15.2457848      7.1059775    1
      7.3599377     17.8065419      7.0947846    1
      7.3213749     16.0705186     1.7054743   1
      5.8751776     18.6376492     1.6829223   1
      5.8462177     16.8765765      2.3678560    1
      7.3077713     19.4080626      2.3678560    1
      5.8462177     15.1889185      0.0000000    1
      7.3077713     17.7204045      0.0000000    1
      8.8308570     20.3805364      7.0581370    1
     10.3241317      2.4155623      6.9232422    1
     10.3051170      0.6812223     1.5689027   1
      8.7822088      3.2661609     1.6800268   1
      8.7693260      1.6876581      2.3678560    1
     10.2308808     1.2191441      2.3678560   1
      8.7693260      0.0000000      0.0000000    1
     10.2308808      2.5314861      0.0000000    1
      8.8054923     1.9765083      6.9613734   1
     10.3125502      7.5942447      7.0886670    1
     10.3047427      5.8769261     1.6511163   1
      8.8254336      8.4244241     1.6985540   1
      8.7693260      6.7506302      2.3678560    1
     10.2308808      9.2821163      2.3678560    1
      8.7693260      5.0629721      0.0000000    1
     10.2308808      7.5944582      0.0000000    1
      8.8312125     10.1404905      7.1028023    1
     10.3037307     12.7011530      6.9679535    1
     10.3011749     10.9596475     1.6569369   1
      8.7923800     13.5195258     1.6831323   1
      8.7693260     11.8136023      2.3678560    1
     10.2308808     14.3450905      2.3678560    1
      8.7693260     10.1259463      0.0000000    1
     10.2308808     12.6574324      0.0000000    1
      8.8135240     15.2689737      7.0327020    1
     10.2926737     17.8500907      7.0740456    1
     10.2998791     16.0844995     1.6456125   1
      8.8101001     18.6314725     1.7054019   1
      8.7693260     16.8765765      2.3678560    1
     10.2308808     19.4080626      2.3678560    1
      8.7693260     15.1889185      0.0000000    1
     10.2308808     17.7204045      0.0000000    1
%endblock AtomicCoordinatesAndAtomicSpecies

