%block AtomicCoordinatesAndAtomicSpecies
    0.00000000  -37.35494600  -12.74804600   2  H_sat      1
   -3.59448100  -31.12912200  -12.74804600   2  H_sat      2
    3.59448100  -31.12912200  -12.74804600   2  H_sat      3
   -7.18896300  -24.90329800  -12.74804600   2  H_sat      4
    0.00000000  -24.90329800  -12.74804600   2  H_sat      5
    7.18896300  -24.90329800  -12.74804600   2  H_sat      6
  -10.78344400  -18.67747300  -12.74804600   2  H_sat      7
   -3.59448100  -18.67747300  -12.74804600   2  H_sat      8
    3.59448100  -18.67747300  -12.74804600   2  H_sat      9
   10.78344400  -18.67747300  -12.74804600   2  H_sat     10
  -14.37792600  -12.45164900  -12.74804600   2  H_sat     11
   -7.18896300  -12.45164900  -12.74804600   2  H_sat     12
    0.00000000  -12.45164900  -12.74804600   2  H_sat     13
    7.18896300  -12.45164900  -12.74804600   2  H_sat     14
   14.37792600  -12.45164900  -12.74804600   2  H_sat     15
  -17.97240700   -6.22582400  -12.74804600   2  H_sat     16
  -10.78344400   -6.22582400  -12.74804600   2  H_sat     17
   -3.59448100   -6.22582400  -12.74804600   2  H_sat     18
    3.59448100   -6.22582400  -12.74804600   2  H_sat     19
   10.78344400   -6.22582400  -12.74804600   2  H_sat     20
   17.97240700   -6.22582400  -12.74804600   2  H_sat     21
  -21.56688800    0.00000000  -12.74804600   2  H_sat     22
  -14.37792600    0.00000000  -12.74804600   2  H_sat     23
   -7.18896300    0.00000000  -12.74804600   2  H_sat     24
    0.00000000    0.00000000  -12.74804600   2  H_sat     25
    7.18896300    0.00000000  -12.74804600   2  H_sat     26
   14.37792600    0.00000000  -12.74804600   2  H_sat     27
   21.56688800    0.00000000  -12.74804600   2  H_sat     28
  -17.97240700    6.22582400  -12.74804600   2  H_sat     29
  -10.78344400    6.22582400  -12.74804600   2  H_sat     30
   -3.59448100    6.22582400  -12.74804600   2  H_sat     31
    3.59448100    6.22582400  -12.74804600   2  H_sat     32
   10.78344400    6.22582400  -12.74804600   2  H_sat     33
   17.97240700    6.22582400  -12.74804600   2  H_sat     34
  -14.37792600   12.45164900  -12.74804600   2  H_sat     35
   -7.18896300   12.45164900  -12.74804600   2  H_sat     36
    0.00000000   12.45164900  -12.74804600   2  H_sat     37
    7.18896300   12.45164900  -12.74804600   2  H_sat     38
   14.37792600   12.45164900  -12.74804600   2  H_sat     39
  -10.78344400   18.67747300  -12.74804600   2  H_sat     40
   -3.59448100   18.67747300  -12.74804600   2  H_sat     41
    3.59448100   18.67747300  -12.74804600   2  H_sat     42
   10.78344400   18.67747300  -12.74804600   2  H_sat     43
   -7.18896300   24.90329800  -12.74804600   2  H_sat     44
    0.00000000   24.90329800  -12.74804600   2  H_sat     45
    7.18896300   24.90329800  -12.74804600   2  H_sat     46
   -3.59448100   31.12912200  -12.74804600   2  H_sat     47
    3.59448100   31.12912200  -12.74804600   2  H_sat     48
    0.00000000   37.35494600  -12.74804600   2  H_sat     49
    0.00000000  -37.35494600   -9.95314300   1  Si        50
   -3.59448100  -31.12912200   -9.95314300   1  Si        51
    3.59448100  -31.12912200   -9.95314300   1  Si        52
   -7.18896300  -24.90329800   -9.95314300   1  Si        53
    0.00000000  -24.90329800   -9.95314300   1  Si        54
    7.18896300  -24.90329800   -9.95314300   1  Si        55
  -10.78344400  -18.67747300   -9.95314300   1  Si        56
   -3.59448100  -18.67747300   -9.95314300   1  Si        57
    3.59448100  -18.67747300   -9.95314300   1  Si        58
   10.78344400  -18.67747300   -9.95314300   1  Si        59
  -14.37792600  -12.45164900   -9.95314300   1  Si        60
   -7.18896300  -12.45164900   -9.95314300   1  Si        61
    0.00000000  -12.45164900   -9.95314300   1  Si        62
    7.18896300  -12.45164900   -9.95314300   1  Si        63
   14.37792600  -12.45164900   -9.95314300   1  Si        64
  -17.97240700   -6.22582400   -9.95314300   1  Si        65
  -10.78344400   -6.22582400   -9.95314300   1  Si        66
   -3.59448100   -6.22582400   -9.95314300   1  Si        67
    3.59448100   -6.22582400   -9.95314300   1  Si        68
   10.78344400   -6.22582400   -9.95314300   1  Si        69
   17.97240700   -6.22582400   -9.95314300   1  Si        70
  -21.56688800    0.00000000   -9.95314300   1  Si        71
  -14.37792600    0.00000000   -9.95314300   1  Si        72
   -7.18896300    0.00000000   -9.95314300   1  Si        73
    0.00000000    0.00000000   -9.95314300   1  Si        74
    7.18896300    0.00000000   -9.95314300   1  Si        75
   14.37792600    0.00000000   -9.95314300   1  Si        76
   21.56688800    0.00000000   -9.95314300   1  Si        77
  -17.97240700    6.22582400   -9.95314300   1  Si        78
  -10.78344400    6.22582400   -9.95314300   1  Si        79
   -3.59448100    6.22582400   -9.95314300   1  Si        80
    3.59448100    6.22582400   -9.95314300   1  Si        81
   10.78344400    6.22582400   -9.95314300   1  Si        82
   17.97240700    6.22582400   -9.95314300   1  Si        83
  -14.37792600   12.45164900   -9.95314300   1  Si        84
   -7.18896300   12.45164900   -9.95314300   1  Si        85
    0.00000000   12.45164900   -9.95314300   1  Si        86
    7.18896300   12.45164900   -9.95314300   1  Si        87
   14.37792600   12.45164900   -9.95314300   1  Si        88
  -10.78344400   18.67747300   -9.95314300   1  Si        89
   -3.59448100   18.67747300   -9.95314300   1  Si        90
    3.59448100   18.67747300   -9.95314300   1  Si        91
   10.78344400   18.67747300   -9.95314300   1  Si        92
   -7.18896300   24.90329800   -9.95314300   1  Si        93
    0.00000000   24.90329800   -9.95314300   1  Si        94
    7.18896300   24.90329800   -9.95314300   1  Si        95
   -3.59448100   31.12912200   -9.95314300   1  Si        96
    3.59448100   31.12912200   -9.95314300   1  Si        97
    0.00000000   37.35494600   -9.95314300   1  Si        98
    0.00000081  -33.19929496   -8.99334734   1  Si        99
   -3.59387916  -26.98170058   -8.36048121   1  Si       100
    3.59386551  -26.98170981   -8.36047190   1  Si       101
   -7.18590806  -20.75105195   -9.02825641   1  Si       102
   -0.00001254  -20.77456474   -8.37332405   1  Si       103
    7.18593452  -20.75104551   -9.02816816   1  Si       104
  -10.78456851  -14.52564006   -8.36098270   1  Si       105
   -3.61502829  -14.51597188   -8.37211712   1  Si       106
    3.61499306  -14.51598776   -8.37206615   1  Si       107
   10.78456537  -14.52565228   -8.36096647   1  Si       108
  -14.37195378   -8.30269479   -8.99746791   1  Si       109
   -7.19223400   -8.29888853   -8.36455020   1  Si       110
    0.00001047   -8.30396812   -9.03147452   1  Si       111
    7.19223224   -8.29888316   -8.36468383   1  Si       112
   14.37197466   -8.30268671   -8.99743115   1  Si       113
  -17.93493932   -2.06033136   -8.44611309   1  Si       114
  -10.84991096   -2.07898414   -8.41244103   1  Si       115
   -3.54043578   -2.07873486   -8.43077703   1  Si       116
    3.54046907   -2.07868807   -8.43085215   1  Si       117
   10.84989656   -2.07897112   -8.41239464   1  Si       118
   17.93490521   -2.06034204   -8.44611982   1  Si       119
  -21.53200835    4.17462623   -8.44962798   1  Si       120
  -14.38187362    4.15079267   -8.99860928   1  Si       121
   -7.18933529    4.11249503   -8.37406972   1  Si       122
    0.00000805    4.15150282   -9.05203643   1  Si       123
    7.18937503    4.11253230   -8.37406707   1  Si       124
   14.38186881    4.15078507   -8.99858942   1  Si       125
   21.53200502    4.17463785   -8.44962087   1  Si       126
  -18.00713295   10.31845240   -8.41824438   1  Si       127
  -10.81699279   10.39691046   -8.37248426   1  Si       128
   -3.57462702   10.38733330   -8.37523395   1  Si       129
    3.57463021   10.38733210   -8.37523302   1  Si       130
   10.81695589   10.39693287   -8.37248339   1  Si       131
   18.00712534   10.31845419   -8.41825355   1  Si       132
  -14.35246543   16.64980747   -8.42492321   1  Si       133
   -7.19027709   16.60406764   -9.05336623   1  Si       134
   -0.00001571   16.57934818   -8.37982016   1  Si       135
    7.19027218   16.60409440   -9.05347994   1  Si       136
   14.35245191   16.64982322   -8.42494698   1  Si       137
  -10.81180654   22.78278775   -8.42913123   1  Si       138
   -3.62717514   22.84630332   -8.37139441   1  Si       139
    3.62715885   22.84629543   -8.37141798   1  Si       140
   10.81177193   22.78279088   -8.42928621   1  Si       141
   -7.15826746   29.11092946   -8.41814388   1  Si       142
    0.00000216   29.05686029   -9.00175862   1  Si       143
    7.15827356   29.11090829   -8.41820663   1  Si       144
   -3.59994688   35.23958198   -8.44432414   1  Si       145
    3.59985743   35.23958816   -8.44445463   1  Si       146
    0.00000526   41.50385413   -8.22394567   1  Si       147
   -0.00054688  -33.12061126   -4.75787197   1  Si       148
   -3.48589148  -26.95424291   -3.83550836   1  Si       149
    3.48587962  -26.95451075   -3.83541231   1  Si       150
   -7.13243554  -20.71492190   -4.80248734   1  Si       151
   -0.00016456  -21.07773980   -3.84091097   1  Si       152
    7.13201984  -20.71501393   -4.80240005   1  Si       153
  -10.70373801  -14.44843336   -3.83611205   1  Si       154
   -3.88154449  -14.35327292   -3.83991313   1  Si       155
    3.88145063  -14.35330214   -3.83992701   1  Si       156
   10.70336093  -14.44848849   -3.83598911   1  Si       157
  -14.30890875   -8.33314482   -4.76032863   1  Si       158
   -7.21965942   -8.40619752   -3.84053816   1  Si       159
    0.00005419   -8.34374786   -4.80673167   1  Si       160
    7.21937127   -8.40622251   -3.84088102   1  Si       161
   14.30823914   -8.33267391   -4.76017560   1  Si       162
  -16.78046994   -2.09477004   -4.13163109   1  Si       163
  -12.17633561   -2.10363681   -4.10642092   1  Si       164
   -2.28388794   -2.10763573   -4.12077588   1  Si       165
    2.28361897   -2.10756157   -4.12091272   1  Si       166
   12.17612016   -2.10351961   -4.10635901   1  Si       167
   16.78037177   -2.09481462   -4.13161431   1  Si       168
  -20.98546560    5.19644995   -4.13726339   1  Si       169
  -14.33720088    4.17152363   -4.80257157   1  Si       170
   -7.22433750    4.24709705   -3.89987698   1  Si       171
   -0.00007887    4.17687170   -4.86548283   1  Si       172
    7.22432105    4.24714770   -3.89999286   1  Si       173
   14.33718363    4.17158387   -4.80254579   1  Si       174
   20.98539907    5.19646086   -4.13727873   1  Si       175
  -18.68892516    9.18551227   -4.11515724   1  Si       176
  -10.71872929   10.31802877   -3.89774968   1  Si       177
   -3.88338714   10.20141406   -3.89846932   1  Si       178
    3.88331228   10.20134190   -3.89849915   1  Si       179
   10.71871967   10.31817422   -3.89768377   1  Si       180
   18.68887701    9.18554907   -4.11516342   1  Si       181
  -13.75884117   17.76819808   -4.11498595   1  Si       182
   -7.16605908   16.59119636   -4.86713151   1  Si       183
   -0.00023737   16.91771508   -3.90469778   1  Si       184
    7.16588816   16.59116948   -4.86705012   1  Si       185
   13.75883433   17.76821548   -4.11500261   1  Si       186
  -11.47279628   21.72011423   -4.11923050   1  Si       187
   -3.49445202   22.80336591   -3.89582448   1  Si       188
    3.49425528   22.80331223   -3.89589305   1  Si       189
   11.47247586   21.71992464   -4.11957739   1  Si       190
   -6.51775640   30.27087853   -4.11413983   1  Si       191
   -0.00021375   28.99751368   -4.80430495   1  Si       192
    6.51656262   30.27053111   -4.11436783   1  Si       193
   -4.20755883   34.25583282   -4.13061362   1  Si       194
    4.20724436   34.25592990   -4.13066725   1  Si       195
   -0.00005850  -37.04471305   -2.62546969   1  Si       196
   -3.47694738  -31.34897526   -2.63541218   1  Si       197
    3.47677737  -31.34901523   -2.63547010   1  Si       198
   -7.25659444  -24.63390345   -2.67269114   1  Si       199
   -0.00000073  -25.02815296   -1.74600008   1  Si       200
    7.25637217  -24.63404499   -2.67279342   1  Si       201
  -10.58786329  -18.87103112   -2.67251682   1  Si       202
   -3.71064816  -18.73780331   -2.77611367   1  Si       203
    3.71033803  -18.73784028   -2.77599583   1  Si       204
   10.58732544  -18.87113458   -2.67170388   1  Si       205
  -14.50341198  -12.24033271   -2.64518148   1  Si       206
   -7.29834874  -12.38352233   -1.74036921   1  Si       207
   -0.00000543  -12.30453979   -2.79410015   1  Si       208
    7.29811153  -12.38346735   -1.74032503   1  Si       209
   14.50249459  -12.23978803   -2.64503904   1  Si       210
  -17.70451173   -6.37972305   -2.61582890   1  Si       211
  -11.02737705   -6.22281210   -2.63578631   1  Si       212
   -3.33242508   -6.28611287   -2.67636127   1  Si       213
    3.33243277   -6.28604117   -2.67664679   1  Si       214
   11.02713808   -6.22246678   -2.63561802   1  Si       215
   17.70424250   -6.37969288   -2.61587014   1  Si       216
  -17.72405589    2.22194006   -2.67976547   1  Si       217
  -11.03886485    2.05288394   -2.73043014   1  Si       218
   -3.32922240    2.10840128   -2.77133037   1  Si       219
    3.32915562    2.10834081   -2.77132631   1  Si       220
   11.03883696    2.05288354   -2.73046550   1  Si       221
   17.72401925    2.22194359   -2.67974105   1  Si       222
  -14.52387539    8.09741922   -2.73755410   1  Si       223
   -7.31222842    8.23633729   -1.82346170   1  Si       224
    0.00001827    8.13630288   -2.86668757   1  Si       225
    7.31223904    8.23639864   -1.82350717   1  Si       226
   14.52381853    8.09741692   -2.73756295   1  Si       227
  -10.62526077   14.75753255   -2.76412749   1  Si       228
   -3.73629473   14.59639640   -2.87314137   1  Si       229
    3.73597401   14.59633750   -2.87356571   1  Si       230
   10.62511308   14.75750346   -2.76424937   1  Si       231
   -7.29631432   20.51085576   -2.77357214   1  Si       232
   -0.00009046   20.86839389   -1.82894770   1  Si       233
    7.29618343   20.51084938   -2.77359865   1  Si       234
   -3.48663180   27.20782038   -2.72990543   1  Si       235
    3.48617210   27.20772572   -2.72997163   1  Si       236
   -0.00014761   32.91026585   -2.68702216   1  Si       237
  -14.31996513   -8.33764481   -0.19153227   1  Si       238
    0.00025797   -8.40000513   -0.29799090   1  Si       239
   14.31946485   -8.33665155   -0.19119270   1  Si       240
   -7.09673866  -20.69967236   -0.28354804   1  Si       241
    7.09617285  -20.70011507   -0.28355355   1  Si       242
   -0.00003832  -33.14562231   -0.19103152   1  Si       243
  -14.32002446    4.18982475   -0.25677445   1  Si       244
    0.00002836    4.22334242   -0.36745937   1  Si       245
   14.32000869    4.18983926   -0.25680350   1  Si       246
   -7.11757377   16.57032704   -0.37229326   1  Si       247
    7.11745882   16.57028418   -0.37238533   1  Si       248
   -0.00011901   28.98280005   -0.25668499   1  Si       249
%endblock AtomicCoordinatesAndAtomicSpecies
