#--------------------------------------- 
#Input Generated for Space Group Testing 
#--------------------------------------- 
SystemLabel  03-orthorombic-oF.27-spg42.inp 
NumberOfSpecies 1 
%block ChemicalSpeciesLabel 
 1  1  H 
%endblock ChemicalSpeciesLabel 
LatticeConstant  5.0 Ang   
%block LatticeVectors 
5.2047488964E-16  4.0000000000E+00  4.5000000000E+00
3.5000000000E+00  2.7554552981E-16  4.5000000000E+00
3.5000000000E+00  4.0000000000E+00  0.0000000000E+00
%endblock LatticeVectors 
AtomicCoordinatesFormat  Fractional 
%block AtomicCoordinatesAndAtomicSpecies 
9.0000000000E-02  1.3000000000E-01  2.1000000000E-01  1  1  H
3.9300000000E-01  9.2700000000E-01  5.4100000000E-01  1  2  H
6.9815000000E-01  9.3015000000E-01  9.4985000000E-01  1  3  H
1.3000000000E-01  9.0000000000E-02  5.7000000000E-01  1  4  H
9.2700000000E-01  3.9300000000E-01  1.3900000000E-01  1  5  H
9.3015000000E-01  6.9815000000E-01  4.2185000000E-01  1  6  H
7.9000000000E-01  4.3000000000E-01  9.1000000000E-01  1  7  H
4.5900000000E-01  8.6100000000E-01  6.0700000000E-01  1  8  H
5.0150000000E-02  5.7815000000E-01  3.0185000000E-01  1  9  H
4.3000000000E-01  7.9000000000E-01  8.7000000000E-01  1  10  H
8.6100000000E-01  4.5900000000E-01  7.3000000000E-02  1  11  H
5.7815000000E-01  5.0150000000E-02  6.9850000000E-02  1  12  H
%endblock AtomicCoordinatesAndAtomicSpecies 
MaxSCFIterations 	0  
MD.TypeOfRun    CG   
MD.NumCGsteps   0  
SCF.MustConverge  .False. 
