
SystemName            4_5 rotated graphene bilayer (angle=7.38 deg)
SystemLabel           Bilayer-4_5        # Short name for naming files

# Species and atoms

NumberOfSpecies        2       
NumberOfAtoms          244
%block ChemicalSpeciesLabel
  1  6  C
  2  1  H       
%endblock ChemicalSpeciesLabel


PAO.EnergyShift       200 meV
PAO.BasisSize         DZ
PAO.SplitNorm                   0.25


LatticeConstant    1.000000 Ang
%block LatticeVectors
   19.314099    1.239000    0.000000
    8.584044   17.346000    0.000000
    0.000000    0.000000   20.000000
%endblock LatticeVectors

	# UNFOLDING options
# BandLinesScale   pi/a
SaveHS		   .true.

%include meshgen.fdf   # Contains %block UnfoldedBandLines, see Src/meshgen.c

RefoldingGcutoff	15.0 Ry
%block RefoldingLatticeVectors
  0.000019314099   0.000001239    0.0 
  0.000008584044   0.000017346    0.0 
  0.0              0.0           20.0  
%endblock RefoldingLatticeVectors


%block k_grid_Monkhorst_Pack
 40    0  0  0.0
-40   40  0  0.0
  0    0  1  0.0
%endblock k_grid_Monkhorst_Pack

Diag.ParallelOverK    .true.

#%block BandLines
# 1   0.00000    0.000000  0.000000  \Gamma
# 60  0.053473  -0.026462  0.000000  M
# 60  0.038195  -0.057335  0.000000  K
# 60  0.00000    0.000000  0.000000  \Gamma
#%endblock BandLines


XC.functional         VDW           # Exchange-correlation functional
XC.authors            BH

SpinPolarized       .false.        # Logical parameters are: yes or no

MeshCutoff           400. Ry        # Mesh cutoff. real space mesh 

# SCF options
MixHamiltonian       .true.
MaxSCFIterations      150            # Maximum number of SCF iter
DM.MixingWeight       0.05           # New DM amount for next SCF cycle
DM.Tolerance          2.5d-4         # Tolerance in maximum difference
                                     # between input and output DM
DM.UseSaveDM          .true.         # to use continuation files
DM.NumberPulay         3

SCFMustConverge       .false.

SolutionMethod        diagon        # OrderN or Diagon

OccupationFunction    MP
OccupationMPOrder     2

ElectronicTemperature  50. meV       # Temp. for Fermi smearing

# MD options

MD.TypeOfRun           cg           # Type of dynamics:
MD.NumCGsteps          0            # Number of CG steps for 
                                    #   coordinate optimization
MD.MaxCGDispl          0.05 Ang      # Maximum atomic displacement 
                                    #   in one CG step (Bohr)
MD.MaxForceTol         0.02 eV/Ang  # Tolerance in the maximum 
                                    #   atomic force (Ry/Bohr)

# Atomic coordinates
AtomicCoordinatesFormat     ScaledCartesian    
%block AtomicCoordinatesAndAtomicSpecies
   10.014718   17.346000    0.000000   1
   11.445392   17.346000    0.000000   1
   12.160729   16.107000    0.000000   1
   13.591403   16.107000    0.000000   1
   14.306740   14.868000    0.000000   1
   15.737414   14.868000    0.000000   1
   16.452751   13.629000    0.000000   1
   17.883425   13.629000    0.000000   1
   18.598762   12.390000    0.000000   1
   20.029436   12.390000    0.000000   1
   20.744773   11.151000    0.000000   1
   22.175446   11.151000    0.000000   1
   22.890783    9.912000    0.000000   1
    5.007359    8.673000    0.000000   1
    5.722696    7.434000    0.000000   1
    7.153370    7.434000    0.000000   1
    7.868707    6.195000    0.000000   1
    9.299381    6.195000    0.000000   1
   10.014718    4.956000    0.000000   1
   11.445392    4.956000    0.000000   1
   12.160729    3.717000    0.000000   1
   13.591403    3.717000    0.000000   1
   14.306740    2.478000    0.000000   1
   15.737414    2.478000    0.000000   1
   16.452751    1.239000    0.000000   1
   17.883425    1.239000    0.000000   1
   27.182805   17.346000    0.000000   1
    9.299381   16.107000    0.000000   1
   10.014718   14.868000    0.000000   1
   11.445392   14.868000    0.000000   1
   12.160729   13.629000    0.000000   1
   13.591403   13.629000    0.000000   1
   14.306740   12.390000    0.000000   1
   15.737414   12.390000    0.000000   1
   16.452751   11.151000    0.000000   1
   17.883425   11.151000    0.000000   1
   18.598762    9.912000    0.000000   1
   20.029436    9.912000    0.000000   1
   20.744773    8.673000    0.000000   1
   22.175446    8.673000    0.000000   1
    3.576685    6.195000    0.000000   1
    5.007359    6.195000    0.000000   1
    5.722696    4.956000    0.000000   1
    7.153370    4.956000    0.000000   1
    7.868707    3.717000    0.000000   1
    9.299381    3.717000    0.000000   1
   10.014718    2.478000    0.000000   1
   11.445392    2.478000    0.000000   1
   12.160729    1.239000    0.000000   1
   13.591403    1.239000    0.000000   1
   22.890783   17.346000    0.000000   1
   24.321457   17.346000    0.000000   1
   25.036794   16.107000    0.000000   1
   26.467468   16.107000    0.000000   1
    7.868707   13.629000    0.000000   1
    9.299381   13.629000    0.000000   1
   10.014718   12.390000    0.000000   1
   11.445392   12.390000    0.000000   1
   12.160729   11.151000    0.000000   1
   13.591403   11.151000    0.000000   1
   14.306740    9.912000    0.000000   1
   15.737414    9.912000    0.000000   1
   16.452751    8.673000    0.000000   1
   17.883425    8.673000    0.000000   1
   18.598762    7.434000    0.000000   1
   20.029436    7.434000    0.000000   1
   20.744773    6.195000    0.000000   1
    2.861348    4.956000    0.000000   1
    3.576685    3.717000    0.000000   1
    5.007359    3.717000    0.000000   1
    5.722696    2.478000    0.000000   1
    7.153370    2.478000    0.000000   1
    7.868707    1.239000    0.000000   1
    9.299381    1.239000    0.000000   1
   18.598762   17.346000    0.000000   1
   20.029436   17.346000    0.000000   1
   20.744773   16.107000    0.000000   1
   22.175446   16.107000    0.000000   1
   22.890783   14.868000    0.000000   1
   24.321457   14.868000    0.000000   1
   25.036794   13.629000    0.000000   1
    7.153370   12.390000    0.000000   1
    7.868707   11.151000    0.000000   1
    9.299381   11.151000    0.000000   1
   10.014718    9.912000    0.000000   1
   11.445392    9.912000    0.000000   1
   12.160729    8.673000    0.000000   1
   13.591403    8.673000    0.000000   1
   14.306740    7.434000    0.000000   1
   15.737414    7.434000    0.000000   1
   16.452751    6.195000    0.000000   1
   17.883425    6.195000    0.000000   1
   18.598762    4.956000    0.000000   1
   20.029436    4.956000    0.000000   1
    1.430674    2.478000    0.000000   1
    2.861348    2.478000    0.000000   1
    3.576685    1.239000    0.000000   1
    5.007359    1.239000    0.000000   1
   14.306740   17.346000    0.000000   1
   15.737414   17.346000    0.000000   1
   16.452751   16.107000    0.000000   1
   17.883425   16.107000    0.000000   1
   18.598762   14.868000    0.000000   1
   20.029436   14.868000    0.000000   1
   20.744773   13.629000    0.000000   1
   22.175446   13.629000    0.000000   1
   22.890783   12.390000    0.000000   1
   24.321457   12.390000    0.000000   1
    5.722696    9.912000    0.000000   1
    7.153370    9.912000    0.000000   1
    7.868707    8.673000    0.000000   1
    9.299381    8.673000    0.000000   1
   10.014718    7.434000    0.000000   1
   11.445392    7.434000    0.000000   1
   12.160729    6.195000    0.000000   1
   13.591403    6.195000    0.000000   1
   14.306740    4.956000    0.000000   1
   15.737414    4.956000    0.000000   1
   16.452751    3.717000    0.000000   1
   17.883425    3.717000    0.000000   1
   18.598762    2.478000    0.000000   1
    0.715337    1.239000    0.000000   1
    1.418947    0.182803    3.248000   1
    2.837894    0.365607    3.248000   1
   12.289724   16.574164    3.248000   1
   13.708671   16.756967    3.248000   1
   14.576457   15.619525    3.248000   1
   15.995404   15.802328    3.248000   1
   16.863190   14.664885    3.248000   1
   18.282137   14.847689    3.248000   1
   19.149923   13.710246    3.248000   1
   20.568870   13.893049    3.248000   1
   21.436656   12.755607    3.248000   1
   22.855603   12.938410    3.248000   1
   23.723389   11.800967    3.248000   1
    5.828237   10.744770    3.248000   1
    6.696023    9.607328    3.248000   1
    8.114970    9.790131    3.248000   1
    8.982756    8.652689    3.248000   1
   10.401703    8.835492    3.248000   1
   11.269489    7.698049    3.248000   1
   12.688436    7.880852    3.248000   1
   13.556222    6.743410    3.248000   1
   14.975169    6.926213    3.248000   1
   15.842955    5.788770    3.248000   1
   17.261902    5.971574    3.248000   1
   18.129688    4.834131    3.248000   1
   19.548635    5.016934    3.248000   1
   20.416421    3.879492    3.248000   1
    2.521270    2.823295    3.248000   1
    3.389056    1.685852    3.248000   1
    4.808003    1.868656    3.248000   1
    5.675789    0.731213    3.248000   1
    7.094736    0.914016    3.248000   1
   16.546565   17.122574    3.248000   1
   17.965512   17.305377    3.248000   1
   18.833298   16.167934    3.248000   1
   20.252245   16.350738    3.248000   1
   21.120031   15.213295    3.248000   1
   22.538978   15.396098    3.248000   1
   23.406764   14.258656    3.248000   1
   24.825711   14.441459    3.248000   1
    6.379399   12.065016    3.248000   1
    7.798346   12.247820    3.248000   1
    8.666132   11.110377    3.248000   1
   10.085079   11.293180    3.248000   1
   10.952865   10.155738    3.248000   1
   12.371812   10.338541    3.248000   1
   13.239598    9.201098    3.248000   1
   14.658545    9.383902    3.248000   1
   15.526331    8.246459    3.248000   1
   16.945278    8.429262    3.248000   1
   17.813064    7.291820    3.248000   1
   19.232011    7.474623    3.248000   1
   20.099797    6.337180    3.248000   1
   21.518744    6.519984    3.248000   1
    3.072431    4.143541    3.248000   1
    4.491378    4.326344    3.248000   1
    5.359164    3.188902    3.248000   1
    6.778111    3.371705    3.248000   1
    7.645897    2.234262    3.248000   1
    9.064844    2.417066    3.248000   1
    9.932630    1.279623    3.248000   1
   11.351577    1.462426    3.248000   1
   20.803407   17.670984    3.248000   1
   22.222354   17.853787    3.248000   1
   23.090140   16.716344    3.248000   1
   24.509087   16.899148    3.248000   1
   25.376873   15.761705    3.248000   1
    7.481721   14.705508    3.248000   1
    8.349507   13.568066    3.248000   1
    9.768454   13.750869    3.248000   1
   10.636240   12.613426    3.248000   1
   12.055187   12.796230    3.248000   1
   12.922973   11.658787    3.248000   1
   14.341920   11.841590    3.248000   1
   15.209706   10.704148    3.248000   1
   16.628653   10.886951    3.248000   1
   17.496439    9.749508    3.248000   1
   18.915386    9.932311    3.248000   1
   19.783172    8.794869    3.248000   1
   21.202119    8.977672    3.248000   1
   22.069905    7.840230    3.248000   1
    4.174754    6.784033    3.248000   1
    5.042539    5.646590    3.248000   1
    6.461487    5.829393    3.248000   1
    7.329272    4.691951    3.248000   1
    8.748220    4.874754    3.248000   1
    9.616005    3.737311    3.248000   1
   11.034952    3.920115    3.248000   1
   11.902738    2.782672    3.248000   1
   13.321685    2.965475    3.248000   1
   14.189471    1.828033    3.248000   1
   15.608418    2.010836    3.248000   1
   25.060248   18.219393    3.248000   1
   26.479195   18.402197    3.248000   1
    8.032883   16.025754    3.248000   1
    9.451830   16.208557    3.248000   1
   10.319616   15.071115    3.248000   1
   11.738563   15.253918    3.248000   1
   12.606348   14.116475    3.248000   1
   14.025296   14.299279    3.248000   1
   14.893081   13.161836    3.248000   1
   16.312029   13.344639    3.248000   1
   17.179814   12.207197    3.248000   1
   18.598762   12.390000    3.248000   1
   19.466547   11.252557    3.248000   1
   20.885495   11.435361    3.248000   1
   21.753280   10.297918    3.248000   1
   23.172228   10.480721    3.248000   1
    4.725915    8.104279    3.248000   1
    6.144862    8.287082    3.248000   1
    7.012648    7.149639    3.248000   1
    8.431595    7.332443    3.248000   1
    9.299381    6.195000    3.248000   1
   10.718328    6.377803    3.248000   1
   11.586114    5.240361    3.248000   1
   13.005061    5.423164    3.248000   1
   13.872847    4.285721    3.248000   1
   15.291794    4.468525    3.248000   1
   16.159580    3.331082    3.248000   1
   17.578527    3.513885    3.248000   1
   18.446313    2.376443    3.248000   1
   19.865260    2.559246    3.248000   1
%endblock AtomicCoordinatesAndAtomicSpecies
