SystemName      Molecular dynamique, 80 mol Water  Single SCF step O(N) load balancing
SystemLabel     load_on

NumberOfAtoms         240
NumberOfSpecies       2

%block ChemicalSpeciesLabel
  1    8   O
  2    1   H
%endblock ChemicalSpeciesLabel


#
# To make the job bigger (to test a larger number of procs)
# uncomment the following block (which will multiply the
# cell)
#
#%block Supercell
#  2 0 0
#  0 2 0
#  0 0 2
#%endblock Supercell

#
# To increase the number of points in the real-space grid,
# increase MeshCutoff
#
MeshCutoff         150.0 Ry

User.Basis T

XC.functional      GGA
XC.authors         WC

LatticeConstant    3.960 Ang
%block LatticeVectors
2.453200  0.000000  0.000000
0.000000  4.249070  0.000000
0.000000  0.000000  6.557585
%endblock LatticeVectors


MaxSCFIterations     1   # Unfortunately, it crashes if allowed to do more
DM.MixingWeight      0.02
DM.NumberPulay       8
DM.Tolerance         4.d-4

SolutionMethod       ordern
ElectronicTemperature   25 meV    # Temp. for Fermi smearing

MD.TypeOfRun          CG        # Type of dynamics:
MD.NumCGSteps         0

AtomicCoordinatesFormat Ang
AtomicCoordinatesAndAtomicSpecies < water_molecules_xyz.fdf
