%block AtomicCoordinatesAndAtomicSpecies
    0.87000000     8.56000040     6.19999980      1
    0.21000000     7.04000000    10.48999980      1
    3.64000010     3.59999990     4.84000020      1
    2.56999990     9.97000030     9.80000020      1
    4.17000010    14.56999970     4.19999980      1
    0.80000000     2.04000000    11.69999980      1
    1.49000000    13.32999990    14.13000010      1
    4.02000000    14.34000020     1.59000000      1
    8.60999970     9.64999960    15.06999970      1
    5.13000010    14.85000040    10.18000030      1
    6.61000010     6.73000000    15.06000040      1
    9.01000020     5.38000010     8.89999960      1
    4.50000000     6.28000020    11.71000000      1
    6.94999980     6.28000020     5.76000020      1
    9.39000030     7.17000010     0.11000000      1
    0.52000000    10.68000030    12.89000030      1
    7.67999980     1.05999990     1.41000000      1
    0.41000000    13.47000030     9.13000010      1
    9.55000020     9.98999980    10.31000040      1
    9.57999990     2.43000010     5.48999980      1
    6.09999990    12.52000050     4.21999980      1
    8.04000000     4.84999990     2.22000000      1
    6.26000020     8.07999990    12.00000000      1
    1.87000000     4.94000010     9.43999960      1
    0.03000000    14.04000000     0.79000000      1
    1.37000000     4.73000000     0.63000000      1
    2.77000000    12.85999970    10.35999970      1
    0.22000000     0.33000000     9.97999950      1
    5.19000010     3.50000000    11.23999980      1
    5.52000000     3.73000000     6.82999990      1
    8.60999970    14.14000030    11.47000030      1
    8.84000020     3.39000010     0.09000000      1
    5.96000000     0.97000000     5.65000010      1
    3.77000000     9.77999970    13.43999960      1
    2.32999990     5.63999990     6.82000020      1
    9.32999990     5.09000020     6.21000000      1
    2.34999990    10.55000020     1.14000000      1
    7.17000010     8.54000000     7.46999980      1
    7.50000000     0.57000000     9.67000010      1
    5.42999980    10.54000000    11.18000030      1
    2.88000010     6.19999980     4.67999980      1
    0.95000000     6.48000000     2.65000010      1
    7.38999990    13.31999970     2.14000010      1
    4.30999990     8.02000050     3.11999990      1
    9.46000000    10.61999990     7.23000000      1
    8.85000040    12.61999990     5.46999980      1
    5.54000000     5.71000000     3.03000000      1
    5.36000010     0.21000000     0.15000000      1
    5.34000020    12.22999950     0.11000000      1
    4.09999990     4.25000000     1.36000000      1
    7.48999980    11.85000040     9.92000010      1
    4.38000010    13.93000030    13.69999980      1
    2.45000000    10.15999980     4.38000010      1
    6.48999980     9.77000050     3.46000000      1
    0.12000000     6.44000010    12.72999950      1
    4.02000000     7.77000000     0.08000000      1
    2.41000010     6.01000020    13.76000020      1
    7.38999990    14.60000040     6.69999980      1
    4.73999980     7.36999990     8.77999970      1
    0.97000000    14.31999970     4.19000010      1
    3.95000000     3.00000000     9.07999990      1
    5.63999990    12.88000010     8.42000010      1
    4.34000020     1.44000010     3.19000010      1
    2.03000000    12.32999990     8.39999960      1
    6.17000010     9.60999970     0.74000000      1
    7.52000000     2.71000000     3.94000010      1
    9.39000030     9.14000030     3.18000010      1
    1.35000000    12.07999990     3.69000010      1
    6.17000010     4.05999990     0.07000000      1
    2.47000000     1.84000000     4.52000000      1
    2.50000000    15.39999960     6.67999980      1
    4.67999980    10.72000030     6.86999990      1
    8.02999970     3.31999990    10.61999990      1
    7.69000010    13.97999950    14.07999990      1
    4.44000010     1.42999990    13.65999980      1
    3.05999990    16.27000050     9.39999960      1
    1.42000000    15.84000020    13.39999960      1
    9.39999960    16.48999980     7.67999980      1
    0.68000000    16.81999970     0.31000000      1
    1.65000000     0.25000000     2.32999990      1
    0.08000000     7.94999980     6.09000020      2
    1.41000000     9.07999990     5.30000020      2
   -0.49000000     7.63999990    10.82999990      2
    0.74000000     7.94999980    10.04000000      2
    4.32999990     3.81999990     5.48000000      2
    3.31999990     4.50000000     4.63000010      2
    2.51000000     9.23999980     9.07999990      2
    2.55999990    10.75000000     9.32999990      2
    4.76000020    13.84000020     4.50000000      2
    4.63000010    15.31999970     4.23000000      2
    1.63000000     2.03000000    11.22000030      2
    0.80000000     2.49000000    12.68000030      2
    1.42000000    14.27999970    13.52999970      2
    1.04000000    12.65999980    13.54000000      2
    4.05000020    15.06999970     0.93000000      2
    4.01000020    14.68000030     2.45000000      2
    7.71999980     9.56000040    15.39000030      2
    8.85999970     8.72000030    15.22999950      2
    5.09999990    14.02999970     9.68999960      2
    6.02000000    15.42000010    10.14000030      2
    6.44999980     7.19000010    14.14000030      2
    6.40999980     5.71999980    14.88000010      2
    8.93000030     5.46000000     7.96000000      2
    8.54000000     6.23999980     9.14000030      2
    3.55999990     6.29000000    12.15999980      2
    4.63999990     5.29000000    11.50000000      2
    6.57999990     5.40999980     6.23000000      2
    7.05000020     7.09999990     6.36999990      2
    9.69999980     6.73000000    -0.69000000      2
    8.59000020     6.82999990     0.02000000      2
    0.07000000    10.52999970    13.59000020      2
    1.26000000    10.06000040    12.94999980      2
    8.25000000     0.47000000     0.93000000      2
    6.82999990     0.64000000     0.85000000      2
    0.62000000    14.42000010     9.43999960      2
    1.24000000    13.02000050     9.52000050      2
   10.34000020    10.10999970     9.93999960      2
    9.64000030    10.27000050    11.17000010      2
    8.77999970     2.48000000     4.73000000      2
   10.57999990     2.40000010     5.02000000      2
    6.59999990    12.93999960     3.42000010      2
    6.84000020    12.55000020     4.75000000      2
    7.23000000     5.48000000     2.09999990      2
    8.92000010     5.36999990     2.30999990      2
    6.11000010     9.02999970    11.72000030      2
    5.51000020     7.48999980    11.68000030      2
    0.85000000     5.07000020     9.31999970      2
    2.06999990     5.29000000     8.52999970      2
    0.17000000    14.90999980     1.11000000      2
    0.59000000    13.86999990    -0.01000000      2
    1.65000000     5.09000020    -0.21000000      2
    2.24000000     4.46000000     0.99000000      2
    3.53000000    12.22999950    10.50000000      2
    3.40000010    13.73999980    10.48999980      2
    0.06000000     0.96000000    10.75000000      2
    0.03000000     1.13000000     9.39000030      2
    6.11999990     3.70000000    11.32999990      2
    4.86999990     3.05000000    10.38000010      2
    5.00000000     3.72000000     7.71999980      2
    5.80999990     2.90000010     6.53000020      2
    8.23999980    14.64000030    10.89999960      2
    8.29000000    14.22000030    12.31999970      2
    9.35000040     2.58999990     0.58000000      2
    8.43000030     3.85999990     0.82000000      2
    6.48000000     1.34000000     5.00000000      2
    6.55000020     0.40000000     6.21000000      2
    3.58999990     9.34000020    14.18000030      2
    4.69999980     9.56000040    13.31999970      2
    1.38000000     5.30000020     6.54000000      2
    2.89000010     4.71000000     6.77000000      2
    9.43999960     4.13000010     6.13000010      2
    8.46000000     5.32999990     5.75000000      2
    3.30000000    10.60000040     1.14000000      2
    2.16000010    11.61999990     0.99000000      2
    7.15000010     8.00000000     8.27999970      2
    7.94999980     9.15999980     7.63999990      2
    7.34999990     1.35000000    10.02000050      2
    8.30000020     0.63000000     9.06999970      2
    4.98999980    10.10999970    10.39000030      2
    6.27000000    11.00000000    10.90999980      2
    2.16000010     6.42000010     4.09999990      2
    2.59999990     6.55000020     5.51000020      2
    0.30000000     5.79000000     2.98000000      2
    1.26000000     6.15000010     1.80000000      2
    7.36000010    14.22999950     2.11999990      2
    8.35999970    13.39999960     1.89000000      2
    5.13999990     8.38000010     3.49000000      2
    3.75000000     7.61999990     3.78000000      2
    9.11999990    11.27999970     6.75000000      2
    9.72000030    10.15999980     6.54000000      2
    8.81000040    13.56000040     5.52000000      2
    9.72000030    12.55000020     4.94999980      2
    5.96000000     5.57000020     4.05000020      2
    5.05999990     6.63000010     3.09999990      2
    5.25000000    -0.57000000    -0.49000000      2
    5.46000000     0.85000000    -0.54000000      2
    5.32999990    12.96000000     0.76000000      2
    4.54000000    12.42000010    -0.60000000      2
    4.75000000     4.07999990     0.71000000      2
    4.57000020     4.78000020     1.83000000      2
    8.35000040    11.21000000     9.79000000      2
    7.73999980    12.60000040    10.35999970      2
    4.48000000    13.89999960    12.71000000      2
    3.52000000    14.21000000    13.65999980      2
    3.14000010     9.96000000     3.88000010      2
    1.85000000    10.63000010     3.89000010      2
    7.55000020     9.55000020     3.57999990      2
    6.29000000    10.54000000     3.79000000      2
   -0.46000000     6.80999990    11.94999980      2
    0.97000000     6.92999980    12.72999950      2
    4.09000020     7.57000020     1.05999990      2
    5.03000020     8.10999970    -0.14000000      2
    3.24000000     6.09999990    14.22999950      2
    1.98000000     6.78000020    13.77000050      2
    6.73999980    14.02000050     7.09000020      2
    7.88999990    14.97999950     7.46999980      2
    4.92999980     7.17999980     9.81000040      2
    4.19000010     8.27000050     9.14999960      2
    1.84000000    14.59000020     4.00000000      2
    1.04000000    13.55000020     3.78000000      2
    3.08999990     3.52000000     9.06000040      2
    3.47000000     2.05000000     9.35999970      2
    6.53000020    12.61999990     8.72000030      2
    5.11000010    12.25000000     8.02000050      2
    4.44999980     1.91000000     2.40000010      2
    4.17000010     2.43000010     3.58999990      2
    2.55999990    12.84000020     7.88999990      2
    1.44000010    11.69999980     7.92000010      2
    6.21999980     9.51000020     1.75000000      2
    5.82999990    10.42000010     0.58000000      2
    7.46999980     2.05000000     3.15000010      2
    7.67999980     3.55999990     3.40000010      2
    9.94999980     9.67000010     2.60999990      2
   10.07999990     8.93999960     4.02000000      2
    1.27000000    11.72999950     2.77000000      2
    2.14000010    11.64000030     3.81999990      2
    7.09999990     3.73000000     0.19000000      2
    5.55999990     3.45000000    -0.45000000      2
    2.86999990     2.14000010     3.65000010      2
    2.44000010     0.84000000     4.52000000      2
    2.91000010    15.48999980     7.44999980      2
    3.08999990    15.00000000     6.01000020      2
    5.44000010    10.06000040     6.63999990      2
    4.05999990    10.43999960     6.09999990      2
    8.92000010     3.05999990    11.10000040      2
    8.13000010     4.13000010     9.98999980      2
    6.84000020    13.34000020    14.31999970      2
    8.51000020    13.89999960    14.77000050      2
    3.39000010     1.66000000    13.56000040      2
    4.75000000     2.00000000    12.77000050      2
    2.36999990    16.28000070     9.89999960      2
    3.92000010    15.94999980     9.72999950      2
    0.93000000    16.45000080    12.56999970      2
    2.43000010    16.09000020    13.26000020      2
    9.31000040    17.20000080     6.96000000      2
   10.27000050    16.56999970     7.96000000      2
    0.70000000    16.67000010    -0.63000000      2
    1.54000000    16.90999980     0.64000000      2
    2.54000000     0.33000000     2.73000000      2
    1.07000010     0.47000000     3.05999990      2
%endblock AtomicCoordinatesAndAtomicSpecies
