# $Id: Si.fdf,v 1.2 2002/02/04 17:37:55 javier Exp $
# -----------------------------------------------------------------------------
# FDF for bulk silicon      
#
#
# J. Junquera
# -----------------------------------------------------------------------------

SystemName       Bulk diamond Si    # Descriptive name of the system
SystemLabel            Si           # Short name for naming files

# Output options

WriteCoorStep
WriteMullikenPop       1    

# Species and atoms

NumberOfSpecies        1       
NumberOfAtoms          2      
%block ChemicalSpeciesLabel
  1  14   Si
%endblock ChemicalSpeciesLabel

# Basis
user-basis     .true.

LatticeConstant       5.43 Ang  

%block LatticeVectors          
 0.00000   0.500000  0.500000
 0.50000   0.000000  0.500000 
 0.50000   0.500000  0.000000
%endblock LatticeVectors

# Atomic coordinates
AtomicCoordinatesFormat     Fractional    
%block AtomicCoordinatesAndAtomicSpecies
  0.0000000000    0.000000000000    0.000000000000  1 
  0.2500000000    0.250000000000    0.250000000000  1 
%endblock AtomicCoordinatesAndAtomicSpecies

KgridCutoff          10. Ang

#%block BandLines
#  1  0.00000   0.000000  0.000000  \Gamma
# 40  2.00000   0.000000  0.000000  H
# 28  1.00000   1.000000  0.000000  N
# 28  0.00000   0.000000  0.000000  \Gamma
# 34  1.00000   1.000000  1.000000  P
#%endblock BandLines

xc.functional         LDA           # Exchange-correlation functional
xc.authors            PZ            # Exchange-correlation version

SpinPolarized         no            # Logical parameters are: yes or no

MeshCutoff           30  Ry         # Mesh cutoff. real space mesh 

# SCF options
MaxSCFIterations       40           # Maximum number of SCF iter
DM.MixingWeight       0.1           # New DM amount for next SCF cycle
DM.Tolerance          1.d-4         # Tolerance in maximum difference
                                    # between input and output DM
DM.UseSaveDM          true          # to use continuation files
DM.NumberPulay         3

SolutionMethod        diagon        # OrderN or Diagon
ElectronicTemperature  25 meV       # Temp. for Fermi smearing

# MD options

MD.TypeOfRun           cg           # Type of dynamics:
MD.NumCGsteps           0           # Number of CG steps for 
                                    #   coordinate optimization
MD.MaxCGDispl          0.1 Ang      # Maximum atomic displacement 
                                    #   in one CG step (Bohr)
MD.MaxForceTol         0.04 eV/Ang  # Tolerance in the maximum 
                                    #   atomic force (Ry/Bohr)


WriteCoorXmol          .true.
WriteDenchar           .true.

SaveRho
SaveDeltaRho

2D.CoorUnits            bohr           # Format for coordinate of the points
                                       # Bohr
                                       # Ang

2D.DensityUnits        Ele/bohr**3     # Units of Charge Density
                                       # Ele/bohr**3
                                       # Ele/Ang**3
                                       # Ele/UnitCell

2D.MinX                 0.0  bohr      # Minimum coord of the window in X-dir
2D.MaxX               7.2557 bohr      # Maximum coord of the window in X-dir

2D.MinY                 0.0  bohr      # Minimum coord of the window in Y-dir
2D.MaxY               7.2557 bohr      # Maximum coord of the window in Y-dir

2D.NumberPointsX         13            # Number of points in X-axis
2D.NumberPointsY         13            # Number of points in Y-axis

2D.PlaneGeneration   TwoLines     # Option to generate the plane
                                  # NormalVector
                                  # TwoLines
                                  # ThreePoints
                                  # ThreeAtomicIndices
 
%block 2D.Comp2Vectors            # Components of Two Vectors in the plane
0.00000 0.50000 0.50000
0.50000 0.00000 0.50000
%endblock 2D.Comp2Vectors
 
%block 2D.PlaneOrigin             # Coordinates of the origin of the plane
0.000   0.000   0.000
%endblock 2D.PlaneOrigin
 
%block 2D.AtomsInPlane
 1
 2
 3
%endblock 2D.AtomsInPlane
