
SystemName       64-atom silicon
SystemLabel      si64

NumberOfAtoms    2
NumberOfSpecies  1

%block ChemicalSpeciesLabel
 1  14  Si
%endblock ChemicalSpeciesLabel

LatticeConstant   5.430 Ang
%block LatticeVectors
  0.000  0.500  0.500
  0.500  0.000  0.500
  0.500  0.500  0.000
%endblock LatticeVectors

AtomicCoordinatesFormat  ScaledCartesian
%block AtomicCoordinatesAndAtomicSpecies
-0.1250 -0.1250 -0.1250   1
 0.1250  0.1250  0.1250   1
%endblock AtomicCoordinatesAndAtomicSpecies

%block SuperCell
 -2   2   2
  2  -2   2
  2   2  -2
%endblock SuperCell

PAO.BasisSize     SZ
PAO.EnergyShift   0.5 eV

MeshCutoff        20.0 Ry

DM.MixingWeight   0.50
DM.NumberPulay    3

