SystemName              SOC FePt X-alignment x
SystemLabel             FePtxx

Spin    SO+on
%block DM.InitSpin
 1  +2.  90.  0.
 2  +1.  90.  0.
%endblock DM.InitSpin

NumberOfAtoms           2
NumberOfSpecies         2
%block Chemical_Species_label
        1       26      Fe_fept_SOC
        2       78      Pt_fept_SOC
%endblock Chemical_Species_label

PAO.EnergyShift  100 meV
PAO.SplitNorm      0.15
%Block PAO.Basis
 Fe_fept_SOC   2
   n=4   0   2   P
    0.0   0.0
   n=3   2   2
    0.0   0.0
 Pt_fept_SOC   2
   n=6     0       2    P
    0.00000     0.00000
   n=5     2       2
    0.00000     0.00000
%EndBlock PAO.Basis

AtomicCoordinatesFormat NotScaledCartesianAng
LatticeConstant  1.0 Ang
%block LatticeVectors
    3.792000000    0.000000000    0.000000000
    0.000000000    2.793068700    0.000000000
    0.000000000    0.000000000    2.793068700
%endblock LatticeVectors

%block AtomicCoordinatesAndAtomicSpecies
   0.000000000   1.396535500    1.396535500    1
   1.896000000   0.000000000    0.000000000    2
%endblock AtomicCoordinatesAndAtomicSpecies

# Original test had: 20 41 41
%block kgrid_Monkhorst_Pack
   8   0   0    0.5
   0  12   0    0.0
   0   0  12    0.0
%endblock kgrid_Monkhorst_Pack

XC.functional           GGA
XC.authors              PBE

# Original test had: 2200 Ry
MeshCutoff              350. Ry

SolutionMethod          diagon

ElectronicTemperature    1 meV

MaxSCFIterations        15
SCF.MustConverge false

DM.MixingWeight         0.005
DM.NumberPulay          8
DM.UseSaveDM            T
DM.NumberKick           25
DM.MixSCF1  F

WriteMullikenPop       1
WriteForces            T
WriteCoorStep          T
