SystemName              pt2
SystemLabel             pt2
NumberOfAtoms           2
NumberOfSpecies         1
%block Chemical_Species_label
        1       78      Pt
%endblock Chemical_Species_label

PAO.EnergyShift  100 meV
PAO.SplitNorm      0.15
%Block PAO.Basis
Pt  2
n=6   0   2   P
     0.0  0.0
n=5   2   2
     0.0  0.0
%EndBlock PAO.Basis

AtomicCoordinatesFormat NotScaledCartesianAng
%block LatticeVectors
     1.00      .00      .00
      .00     1.00      .00
      .00      .00     1.00
%endblock LatticeVectors
LatticeConstant  20.0 Ang

%block AtomicCoordinatesAndAtomicSpecies
     -1.19940   0.00000   0.00000  1
      1.19940   0.00000   0.00000  1
%endblock AtomicCoordinatesAndAtomicSpecies

SpinPolarized           T
NonCollinearSpin        T
SpinOrbit               T
#WriteOrbMom             F
%block DM.InitSpin
 1  +1.  90.  0.
 2  +1.  90.  0.
%endblock DM.InitSpin

xc.functional           GGA
xc.authors              PBE
MeshCutoff              300. Ry
SolutionMethod          diagon
ElectronicTemperature   50 meV

DM.Tolerance            1.0E-5
MaxSCFIterations        1000
DM.MixingWeight         0.003
DM.NumberPulay          3
DM.UseSaveDM            T
DM.NumberKick           50
#Diag.DivideAndConquer   F

WriteMullikenPop       1
WriteEigenvalues       T
WriteForces            T
WriteCoorStep          T
#WriteCoorXmol          F
#WriteMDXmol            F

#%block ProjectedDensityOfStates
#-20.00 10.00 0.200 500 eV
#%endblock ProjectedDensityOfStates

#MD.TypeOfRun    CG
#MD.NumCGsteps   100
#MD.MaxCGDispl   0.10 Ang
#MD.MaxForceTol  0.01 eV/Ang
#MD.UseSaveCG   .true.
#MD.UseSaveXV   .true.
