SystemName          (2x) Water molecule with center-of-positions at cell center
SystemLabel         h2o-shift-COP
NumberOfAtoms       3
NumberOfSpecies     2

MeshCutoff  50 Ry

%block ChemicalSpeciesLabel
 1  8  O      # Species index, atomic number, species label
 2  1  H
%endblock ChemicalSpeciesLabel

lattice-constant 1.0 Ang
%block lattice-vectors
8.0 0.0 0.0
0.0 8.0 0.0
0.0 0.0 8.0
%endblock lattice-vectors

AtomicCoordinatesFormat  Ang
%block AtomicCoordinatesAndAtomicSpecies
 0.000  0.000  0.000  1
 0.757  0.586  0.000  2
-0.757  0.586  0.000  2
%endblock AtomicCoordinatesAndAtomicSpecies

atomic-coordinates-origin COP
%block supercell
2 0 0
0 1 0
0 0 1
%endblock supercell


save-rho T
save-delta-rho T
save-total-potential T
save-neutral-atom-potential T
save-hs T
