#--------------------------------------- 
#Input Generated for Space Group Testing 
#--------------------------------------- 
SystemLabel  03-orthorombic-oI.31-spg46.inp 
NumberOfSpecies 1 
%block ChemicalSpeciesLabel 
 1  1  H 
%endblock ChemicalSpeciesLabel 
LatticeConstant  1.0 Ang   
%block LatticeVectors 
  -3.5   4.0   4.5  
  3.5   -4.0   4.5  
  3.5   4.0   -4.5  
%endblock LatticeVectors 
AtomicCoordinatesFormat  Fractional 
%block AtomicCoordinatesAndAtomicSpecies 
2.6000000000E-01   2.8000000000E-01   3.2000000000E-01  1  1   H 
9.6000000000E-01   9.4000000000E-01   6.8000000000E-01  1  2   H 
9.6000000000E-01   7.8000000000E-01   5.2000000000E-01  1  3   H 
2.6000000000E-01   4.4000000000E-01   4.8000000000E-01  1  4   H 
%endblock AtomicCoordinatesAndAtomicSpecies 
MaxSCFIterations 	0  
MD.TypeOfRun    CG   
MD.NumCGsteps   0  
SCF.MustConverge  .False. 
