#--------------------------------------- 
#Input Generated for Space Group Testing 
#--------------------------------------- 
SystemLabel  03-orthorhombic-oI.31-spg46.inp 
NumberOfSpecies 1 
%block ChemicalSpeciesLabel 
 1  1  H 
%endblock ChemicalSpeciesLabel 
LatticeConstant  5.0 Ang   
%block LatticeVectors 
-3.5000000000E+00  4.0000000000E+00  4.5000000000E+00
3.5000000000E+00 -4.0000000000E+00  4.5000000000E+00
3.5000000000E+00  4.0000000000E+00 -4.5000000000E+00 
%endblock LatticeVectors 
AtomicCoordinatesFormat  Fractional 
%block AtomicCoordinatesAndAtomicSpecies 
2.6000000000E-01  2.8000000000E-01  3.2000000000E-01  1  1  H
1.2700000000E-01  3.9400000000E-01  2.0100000000E-01  1  2  H
1.3815000000E-01  7.5415000000E-01  2.6400000000E-01  1  3  H
9.6000000000E-01  9.4000000000E-01  6.8000000000E-01  1  4  H
1.9300000000E-01  9.2600000000E-01  7.9900000000E-01  1  5  H
4.9015000000E-01  8.7415000000E-01  7.3600000000E-01  1  6  H
9.6000000000E-01  7.8000000000E-01  5.2000000000E-01  1  7  H
1.9300000000E-01  8.9400000000E-01  7.6700000000E-01  1  8  H
4.9015000000E-01  2.5415000000E-01  1.1600000000E-01  1  9  H
2.6000000000E-01  4.4000000000E-01  4.8000000000E-01  1  10  H
1.2700000000E-01  4.2600000000E-01  2.3300000000E-01  1  11  H
1.3815000000E-01  3.7415000000E-01  8.8400000000E-01  1  12  H
%endblock AtomicCoordinatesAndAtomicSpecies 
MaxSCFIterations 	0  
MD.TypeOfRun    CG   
MD.NumCGsteps   0  
SCF.MustConverge  .False. 
