SystemName		amorphous Si (216 atoms)
SystemLabel		a-si216
NumberOfAtoms		216
NumberOfSpecies		1

%block ChemicalSpeciesLabel
	1	14	Si
%endblock ChemicalSpeciesLabel

LatticeConstant		16.2813 Ang

%block LatticeVectors
	1.000	0.000	0.000
	0.000	1.000	0.000
	0.000	0.000	1.000
%endblock LatticeVectors

AtomicCoordinatesFormat		Ang

%include a-si216.coord.fdf

PAO.BasisSize 	 SZ

DM.MixingWeight   0.05
SaveHS		 .true.

%block kgrid.MonkhorstPack
   2   0   0   0.5
   0   2   0   0.5
   0   0   2   0.5
%endblock kgrid.MonkhorstPack

BandLinesScale  pi/a

%block UnfoldedBandLines
   300  -20.0  20.0  eV
   1   3.0  3.0  3.0  L
  20   0.0  0.0  0.0  \Gamma
  25   6.0  0.0  0.0  X
  30   6.0  6.0  6.0  \Gamma
%endblock UnfoldedBandLines

RefoldingGcutoff	15.0 Ry

%block RefoldingLatticeVectors
  0.000  0.500  0.500
  0.500  0.000  0.500
  0.500  0.500  0.000
%endblock RefoldingLatticeVectors


