%block AtomicCoordinatesAndAtomicSpecies
15.588956 	6.754473 	12.646411 	1 	Si 
3.574065 	10.591036 	11.247465 	1 	Si 
5.948511 	6.177946 	12.272045 	1 	Si 
9.197466 	7.080198 	10.111310 	1 	Si 
0.428452 	2.162412 	4.503134 	1 	Si 
0.125021 	6.441942 	0.101075 	1 	Si 
6.232593 	6.723453 	0.437514 	1 	Si 
0.239362 	8.257014 	1.455119 	1 	Si 
2.057517 	13.286268 	0.795680 	1 	Si 
13.223806 	8.339178 	6.628192 	1 	Si 
5.774796 	10.399489 	12.131933 	1 	Si 
11.268743 	4.378954 	10.129402 	1 	Si 
10.887114 	12.687332 	9.662014 	1 	Si 
4.850501 	7.039846 	7.171760 	1 	Si 
0.836141 	7.277747 	7.783790 	1 	Si 
0.492234 	0.353605 	8.716329 	1 	Si 
4.639431 	1.517291 	8.196668 	1 	Si 
5.718367 	11.028184 	3.558979 	1 	Si 
10.960264 	10.286392 	1.103246 	1 	Si 
12.024508 	4.721230 	1.623715 	1 	Si 
0.078339 	15.408694 	12.481285 	1 	Si 
8.223407 	1.388930 	14.835752 	1 	Si 
4.432014 	10.489295 	6.976107 	1 	Si 
7.249525 	12.758640 	4.246118 	1 	Si 
15.165838 	7.602823 	14.829987 	1 	Si 
2.300901 	1.613387 	11.547367 	1 	Si 
7.354468 	12.958500 	6.652052 	1 	Si 
9.151397 	6.607083 	2.713409 	1 	Si 
15.663368 	6.750789 	5.583343 	1 	Si 
5.330712 	6.853852 	2.627945 	1 	Si 
2.679006 	6.488012 	6.604848 	1 	Si 
7.522149 	10.854777 	9.289098 	1 	Si 
9.284980 	5.050482 	4.416305 	1 	Si 
14.405555 	8.749013 	2.215123 	1 	Si 
10.896860 	5.736893 	6.006857 	1 	Si 
12.956195 	14.981008 	14.831348 	1 	Si 
3.500445 	3.564754 	11.102434 	1 	Si 
1.154953 	0.748474 	0.959500 	1 	Si 
1.003224 	1.120006 	13.419032 	1 	Si 
2.081402 	5.374562 	11.098609 	1 	Si 
6.153343 	0.668767 	14.040793 	1 	Si 
8.941397 	3.151217 	0.973984 	1 	Si 
3.128419 	14.124622 	7.759558 	1 	Si 
14.495336 	5.475302 	9.008142 	1 	Si 
6.908721 	5.988583 	7.127572 	1 	Si 
7.824917 	12.932060 	14.247202 	1 	Si 
1.906536 	3.901688 	3.942003 	1 	Si 
14.115412 	10.761481 	10.386171 	1 	Si 
10.879523 	0.526527 	5.673049 	1 	Si 
0.145974 	10.296900 	10.574347 	1 	Si 
13.294566 	1.649325 	8.463991 	1 	Si 
1.325146 	13.271758 	9.171471 	1 	Si 
4.315386 	1.180880 	15.481661 	1 	Si 
15.219873 	9.112258 	5.752547 	1 	Si 
11.431241 	6.832704 	2.440164 	1 	Si 
10.789382 	14.554866 	2.501252 	1 	Si 
2.381641 	6.415709 	15.813044 	1 	Si 
5.228366 	8.312517 	15.294547 	1 	Si 
1.275038 	9.293237 	8.778104 	1 	Si 
12.964615 	14.079804 	3.182163 	1 	Si 
5.147357 	3.462346 	1.864600 	1 	Si 
6.110368 	14.420548 	0.040131 	1 	Si 
10.709975 	8.623701 	11.240443 	1 	Si 
2.175966 	10.238155 	3.527734 	1 	Si 
2.018696 	0.511609 	5.000983 	1 	Si 
11.420456 	2.600056 	2.627034 	1 	Si 
5.438847 	4.749964 	3.816955 	1 	Si 
1.295361 	3.136864 	0.535697 	1 	Si 
10.430712 	3.828788 	12.306155 	1 	Si 
4.910686 	7.858418 	9.353243 	1 	Si 
5.652629 	10.474028 	15.912961 	1 	Si 
9.128244 	15.733536 	11.292202 	1 	Si 
5.844050 	11.901138 	8.070432 	1 	Si 
11.147043 	11.934960 	11.941042 	1 	Si 
10.384088 	13.199617 	6.273663 	1 	Si 
11.640084 	2.282076 	7.003046 	1 	Si 
3.167284 	6.611286 	1.733126 	1 	Si 
14.334541 	3.866960 	14.991470 	1 	Si 
2.779968 	8.665334 	12.403954 	1 	Si 
9.702374 	4.981790 	14.229473 	1 	Si 
9.794975 	7.243883 	14.801569 	1 	Si 
14.575364 	4.952351 	6.724092 	1 	Si 
9.986159 	15.291332 	7.291296 	1 	Si 
3.894621 	6.918424 	11.261081 	1 	Si 
2.211106 	13.994233 	14.804054 	1 	Si 
12.457310 	9.237755 	9.692870 	1 	Si 
1.784556 	7.914429 	3.124134 	1 	Si 
13.210214 	0.945653 	11.858755 	1 	Si 
7.887876 	3.744514 	15.203746 	1 	Si 
8.363999 	3.119510 	11.554388 	1 	Si 
8.761153 	1.403933 	10.004214 	1 	Si 
10.640399 	14.958636 	14.645428 	1 	Si 
3.117914 	4.323725 	7.316241 	1 	Si 
14.913162 	11.894002 	14.086736 	1 	Si 
7.294663 	8.510226 	9.527879 	1 	Si 
16.013526 	9.809854 	14.473319 	1 	Si 
4.764574 	11.430269 	1.481430 	1 	Si 
0.342303 	11.647026 	3.772568 	1 	Si 
0.479198 	10.388531 	6.903591 	1 	Si 
4.222516 	3.447802 	14.765991 	1 	Si 
7.622148 	15.196280 	7.280799 	1 	Si 
10.197667 	12.831110 	13.843528 	1 	Si 
2.771893 	0.066885 	8.344453 	1 	Si 
2.984224 	8.338196 	14.726432 	1 	Si 
11.904159 	7.514925 	4.772869 	1 	Si 
15.817556 	3.050406 	13.324700 	1 	Si 
5.884220 	8.852199 	6.202583 	1 	Si 
6.305743 	14.694431 	13.637899 	1 	Si 
6.813153 	16.035677 	1.631296 	1 	Si 
10.920713 	11.171641 	3.291509 	1 	Si 
9.273735 	11.769024 	7.867364 	1 	Si 
8.574000 	9.202510 	14.067257 	1 	Si 
14.055600 	15.307144 	12.816401 	1 	Si 
13.451976 	3.607126 	9.839430 	1 	Si 
7.852312 	8.191610 	7.292330 	1 	Si 
13.370100 	6.529682 	11.816823 	1 	Si 
14.646288 	1.245323 	3.577626 	1 	Si 
0.825932 	4.971585 	13.039240 	1 	Si 
0.380265 	13.678750 	2.509921 	1 	Si 
7.504193 	2.580513 	6.115795 	1 	Si 
16.267519 	14.924502 	10.164685 	1 	Si 
3.583733 	13.793105 	11.305893 	1 	Si 
1.737601 	12.162480 	11.268461 	1 	Si 
7.915444 	10.603397 	15.993795 	1 	Si 
6.351217 	2.023217 	12.117249 	1 	Si 
0.516261 	5.597191 	9.308455 	1 	Si 
5.653219 	11.769447 	14.003987 	1 	Si 
6.147093 	8.738147 	3.898774 	1 	Si 
14.072198 	13.466152 	7.336551 	1 	Si 
5.129560 	3.957750 	12.709572 	1 	Si 
9.278496 	3.055121 	3.288671 	1 	Si 
3.902534 	14.650813 	3.472322 	1 	Si 
10.301331 	9.368484 	4.628985 	1 	Si 
3.894269 	3.510270 	5.209238 	1 	Si 
2.103662 	4.319813 	14.930831 	1 	Si 
12.458228 	12.085810 	6.395548 	1 	Si 
4.246007 	13.590861 	13.565446 	1 	Si 
7.378176 	14.158689 	11.471968 	1 	Si 
3.796456 	11.316593 	4.894486 	1 	Si 
8.861915 	9.242545 	1.256117 	1 	Si 
9.446722 	10.335190 	12.188991 	1 	Si 
14.201999 	4.852564 	2.441695 	1 	Si 
5.296599 	1.684878 	5.957633 	1 	Si 
11.606187 	1.989869 	13.131468 	1 	Si 
4.843920 	1.153744 	1.562019 	1 	Si 
12.472999 	2.469811 	15.239670 	1 	Si 
6.833388 	0.016831 	5.305392 	1 	Si 
3.538593 	9.733564 	9.025752 	1 	Si 
7.225306 	4.709679 	5.265536 	1 	Si 
10.830225 	6.161193 	8.520521 	1 	Si 
7.963306 	2.765592 	8.335466 	1 	Si 
12.570944 	4.109118 	5.864549 	1 	Si 
1.446038 	9.527378 	16.103771 	1 	Si 
8.831588 	0.814968 	0.780691 	1 	Si 
11.921340 	10.032896 	7.534624 	1 	Si 
14.158498 	6.885041 	3.636541 	1 	Si 
14.666340 	10.407838 	3.842892 	1 	Si 
6.718743 	4.580340 	8.953082 	1 	Si 
4.809314 	13.567716 	9.264781 	1 	Si 
13.257260 	10.927942 	12.557549 	1 	Si 
9.839907 	0.463402 	13.361084 	1 	Si 
3.403733 	16.061076 	10.651448 	1 	Si 
13.230918 	12.707696 	9.412024 	1 	Si 
2.173725 	0.110949 	15.197140 	1 	Si 
0.602141 	13.185862 	13.187210 	1 	Si 
1.084175 	3.598585 	8.264959 	1 	Si 
3.106038 	13.479330 	5.400234 	1 	Si 
13.645996 	12.990536 	15.844236 	1 	Si 
14.604775 	14.152245 	1.507523 	1 	Si 
12.130917 	7.664731 	15.037995 	1 	Si 
12.964544 	7.193911 	8.674995 	1 	Si 
2.844307 	0.381883 	2.748328 	1 	Si 
10.077617 	13.880082 	0.398765 	1 	Si 
10.862629 	3.950116 	16.071553 	1 	Si 
11.083077 	0.474014 	1.587226 	1 	Si 
12.410896 	8.452775 	0.999140 	1 	Si 
15.026478 	0.259479 	1.411165 	1 	Si 
15.932798 	3.055454 	6.492909 	1 	Si 
8.422124 	8.659501 	3.457144 	1 	Si 
16.147873 	12.487490 	7.538698 	1 	Si 
9.620212 	13.041132 	3.973792 	1 	Si 
8.566846 	7.040928 	0.489751 	1 	Si 
11.382391 	12.084770 	15.881583 	1 	Si 
0.563570 	2.161756 	10.081314 	1 	Si 
6.257331 	14.837193 	3.625571 	1 	Si 
9.711832 	9.654580 	6.855569 	1 	Si 
8.807664 	1.220834 	4.676988 	1 	Si 
14.593478 	15.431096 	5.976807 	1 	Si 
12.608183 	16.228362 	9.858567 	1 	Si 
0.278489 	15.178491 	4.519750 	1 	Si 
7.947682 	12.889427 	0.331137 	1 	Si 
2.474339 	11.006727 	1.296937 	1 	Si 
0.424843 	8.853483 	12.376129 	1 	Si 
7.705609 	5.347842 	10.903666 	1 	Si 
2.888477 	4.244022 	1.876444 	1 	Si 
5.826895 	4.461613 	16.124396 	1 	Si 
5.563236 	0.686114 	10.234928 	1 	Si 
6.593177 	15.054077 	9.436078 	1 	Si 
4.528871 	3.710397 	9.008907 	1 	Si 
7.666372 	11.727597 	11.412897 	1 	Si 
13.998143 	14.502457 	10.591096 	1 	Si 
4.274447 	13.679478 	1.380517 	1 	Si 
0.811292 	13.097898 	5.518548 	1 	Si 
12.927414 	11.908472 	4.136074 	1 	Si 
15.136543 	1.001528 	7.266685 	1 	Si 
15.587500 	4.338240 	0.654426 	1 	Si 
12.553647 	8.600014 	12.845995 	1 	Si 
13.480424 	5.951451 	14.167403 	1 	Si 
13.016468 	0.484879 	0.097882 	1 	Si 
12.931744 	16.036412 	4.523297 	1 	Si 
10.613799 	15.047169 	9.582958 	1 	Si 
14.835568 	2.518375 	11.312123 	1 	Si 
10.239568 	2.762102 	8.804011 	1 	Si 
6.455371 	8.346903 	13.292245 	1 	Si 
13.323099 	3.177276 	3.819723 	1 	Si 
1.457653 	6.151753 	4.635015 	1 	Si 
%endblock AtomicCoordinatesAndAtomicSpecies
