#--------------------------------------- 
#Input Generated for Space Group Testing 
#--------------------------------------- 
SystemLabel  05-hexagonal-hR.24-spg166.inp 
NumberOfSpecies 1 
%block ChemicalSpeciesLabel 
 1  1  H 
%endblock ChemicalSpeciesLabel 
LatticeConstant  1.0 Ang   
%block LatticeVectors 
  6.24083501168   0.0   5.0051951368  
  -3.12041750584   5.40472166096   5.0051951368  
  -3.12041750584   -5.40472166096   5.0051951368  
%endblock LatticeVectors 
AtomicCoordinatesFormat  Fractional 
%block AtomicCoordinatesAndAtomicSpecies 
1.7000000000E-01   1.5000000000E-01   1.1000000000E-01  1  1   H 
1.1000000000E-01   1.7000000000E-01   1.5000000000E-01  1  2   H 
1.5000000000E-01   1.1000000000E-01   1.7000000000E-01  1  3   H 
8.5000000000E-01   8.3000000000E-01   8.9000000000E-01  1  4   H 
8.9000000000E-01   8.5000000000E-01   8.3000000000E-01  1  5   H 
8.3000000000E-01   8.9000000000E-01   8.5000000000E-01  1  6   H 
8.3000000000E-01   8.5000000000E-01   8.9000000000E-01  1  7   H 
8.9000000000E-01   8.3000000000E-01   8.5000000000E-01  1  8   H 
8.5000000000E-01   8.9000000000E-01   8.3000000000E-01  1  9   H 
1.5000000000E-01   1.7000000000E-01   1.1000000000E-01  1  10   H 
1.1000000000E-01   1.5000000000E-01   1.7000000000E-01  1  11   H 
1.7000000000E-01   1.1000000000E-01   1.5000000000E-01  1  12   H 
%endblock AtomicCoordinatesAndAtomicSpecies 
MaxSCFIterations 	0  
MD.TypeOfRun    CG   
MD.NumCGsteps   0  
SCF.MustConverge  .False. 
