#--------------------------------------- 
#Input Generated for Space Group Testing 
#--------------------------------------- 
SystemLabel  05-hexagonal-hP.50-spg192.inp 
NumberOfSpecies 1 
%block ChemicalSpeciesLabel 
 1  1  H 
%endblock ChemicalSpeciesLabel 
LatticeConstant  1.0 Ang   
%block LatticeVectors 
  8.0   0.0   0.0  
  -4.0   6.92820323024   0.0  
  4.89858719656e-16   8.4846019096e-16   9.0  
%endblock LatticeVectors 
AtomicCoordinatesFormat  Fractional 
%block AtomicCoordinatesAndAtomicSpecies 
1.7000000000E-01   1.5000000000E-01   1.1000000000E-01  1  1   H 
2.0000000000E-02   1.7000000000E-01   1.1000000000E-01  1  2   H 
1.5000000000E-01   1.7000000000E-01   6.1000000000E-01  1  3   H 
8.5000000000E-01   2.0000000000E-02   1.1000000000E-01  1  4   H 
9.8000000000E-01   1.5000000000E-01   6.1000000000E-01  1  5   H 
1.7000000000E-01   2.0000000000E-02   6.1000000000E-01  1  6   H 
8.3000000000E-01   8.5000000000E-01   1.1000000000E-01  1  7   H 
8.3000000000E-01   9.8000000000E-01   6.1000000000E-01  1  8   H 
2.0000000000E-02   8.5000000000E-01   6.1000000000E-01  1  9   H 
1.5000000000E-01   9.8000000000E-01   1.1000000000E-01  1  10   H 
9.8000000000E-01   8.3000000000E-01   1.1000000000E-01  1  11   H 
8.5000000000E-01   8.3000000000E-01   6.1000000000E-01  1  12   H 
8.3000000000E-01   8.5000000000E-01   8.9000000000E-01  1  13   H 
9.8000000000E-01   8.3000000000E-01   8.9000000000E-01  1  14   H 
8.5000000000E-01   8.3000000000E-01   3.9000000000E-01  1  15   H 
1.5000000000E-01   9.8000000000E-01   8.9000000000E-01  1  16   H 
2.0000000000E-02   8.5000000000E-01   3.9000000000E-01  1  17   H 
8.3000000000E-01   9.8000000000E-01   3.9000000000E-01  1  18   H 
1.7000000000E-01   1.5000000000E-01   8.9000000000E-01  1  19   H 
1.7000000000E-01   2.0000000000E-02   3.9000000000E-01  1  20   H 
9.8000000000E-01   1.5000000000E-01   3.9000000000E-01  1  21   H 
8.5000000000E-01   2.0000000000E-02   8.9000000000E-01  1  22   H 
2.0000000000E-02   1.7000000000E-01   8.9000000000E-01  1  23   H 
1.5000000000E-01   1.7000000000E-01   3.9000000000E-01  1  24   H 
%endblock AtomicCoordinatesAndAtomicSpecies 
MaxSCFIterations 	0  
MD.TypeOfRun    CG   
MD.NumCGsteps   0  
SCF.MustConverge  .False. 
