#--------------------------------------- 
#Input Generated for Space Group Testing 
#--------------------------------------- 
SystemLabel  06-cubic-cP.30-spg224.inp 
NumberOfSpecies 1 
%block ChemicalSpeciesLabel 
 1  1  H 
%endblock ChemicalSpeciesLabel 
LatticeConstant  1.0 Ang   
%block LatticeVectors 
  8.0   0.0   0.0  
  0.0   8.0   0.0  
  0.0   0.0   8.0  
%endblock LatticeVectors 
AtomicCoordinatesFormat  Fractional 
%block AtomicCoordinatesAndAtomicSpecies 
1.7000000000E-01   1.5000000000E-01   1.1000000000E-01  1  1   H 
1.1000000000E-01   1.7000000000E-01   1.5000000000E-01  1  2   H 
8.3000000000E-01   8.5000000000E-01   1.1000000000E-01  1  3   H 
8.3000000000E-01   1.5000000000E-01   8.9000000000E-01  1  4   H 
6.5000000000E-01   6.7000000000E-01   3.9000000000E-01  1  5   H 
3.3000000000E-01   3.5000000000E-01   3.9000000000E-01  1  6   H 
1.5000000000E-01   1.1000000000E-01   1.7000000000E-01  1  7   H 
1.1000000000E-01   8.3000000000E-01   8.5000000000E-01  1  8   H 
8.9000000000E-01   8.3000000000E-01   1.5000000000E-01  1  9   H 
3.9000000000E-01   6.5000000000E-01   6.7000000000E-01  1  10   H 
3.9000000000E-01   3.3000000000E-01   3.5000000000E-01  1  11   H 
1.7000000000E-01   8.5000000000E-01   8.9000000000E-01  1  12   H 
3.5000000000E-01   3.3000000000E-01   3.9000000000E-01  1  13   H 
6.7000000000E-01   6.5000000000E-01   3.9000000000E-01  1  14   H 
8.9000000000E-01   1.7000000000E-01   8.5000000000E-01  1  15   H 
3.5000000000E-01   6.7000000000E-01   6.1000000000E-01  1  16   H 
6.7000000000E-01   3.5000000000E-01   6.1000000000E-01  1  17   H 
6.7000000000E-01   6.1000000000E-01   3.5000000000E-01  1  18   H 
6.5000000000E-01   3.3000000000E-01   6.1000000000E-01  1  19   H 
8.5000000000E-01   8.3000000000E-01   1.1000000000E-01  1  20   H 
8.5000000000E-01   1.1000000000E-01   8.3000000000E-01  1  21   H 
1.5000000000E-01   8.9000000000E-01   8.3000000000E-01  1  22   H 
6.7000000000E-01   3.9000000000E-01   6.5000000000E-01  1  23   H 
3.5000000000E-01   3.9000000000E-01   3.3000000000E-01  1  24   H 
3.9000000000E-01   3.5000000000E-01   3.3000000000E-01  1  25   H 
3.9000000000E-01   6.7000000000E-01   6.5000000000E-01  1  26   H 
8.5000000000E-01   8.9000000000E-01   1.7000000000E-01  1  27   H 
6.1000000000E-01   3.5000000000E-01   6.7000000000E-01  1  28   H 
6.1000000000E-01   6.7000000000E-01   3.5000000000E-01  1  29   H 
6.1000000000E-01   6.5000000000E-01   3.3000000000E-01  1  30   H 
1.1000000000E-01   8.5000000000E-01   8.3000000000E-01  1  31   H 
3.3000000000E-01   6.5000000000E-01   6.1000000000E-01  1  32   H 
3.3000000000E-01   3.9000000000E-01   3.5000000000E-01  1  33   H 
1.5000000000E-01   1.7000000000E-01   1.1000000000E-01  1  34   H 
6.1000000000E-01   3.3000000000E-01   6.5000000000E-01  1  35   H 
3.3000000000E-01   6.1000000000E-01   6.5000000000E-01  1  36   H 
1.5000000000E-01   8.3000000000E-01   8.9000000000E-01  1  37   H 
8.3000000000E-01   8.9000000000E-01   1.5000000000E-01  1  38   H 
8.5000000000E-01   1.7000000000E-01   8.9000000000E-01  1  39   H 
6.5000000000E-01   3.9000000000E-01   6.7000000000E-01  1  40   H 
3.5000000000E-01   6.1000000000E-01   6.7000000000E-01  1  41   H 
8.3000000000E-01   1.1000000000E-01   8.5000000000E-01  1  42   H 
1.1000000000E-01   1.5000000000E-01   1.7000000000E-01  1  43   H 
6.5000000000E-01   6.1000000000E-01   3.3000000000E-01  1  44   H 
8.9000000000E-01   1.5000000000E-01   8.3000000000E-01  1  45   H 
8.9000000000E-01   8.5000000000E-01   1.7000000000E-01  1  46   H 
1.7000000000E-01   1.1000000000E-01   1.5000000000E-01  1  47   H 
1.7000000000E-01   8.9000000000E-01   8.5000000000E-01  1  48   H 
%endblock AtomicCoordinatesAndAtomicSpecies 
MaxSCFIterations 	0  
MD.TypeOfRun    CG   
MD.NumCGsteps   0  
SCF.MustConverge  .False. 
